 vasp.5.4.4.18Apr17-6-g9f103f2a35 (build May 31 2018 21:15:54) complex

 executed on          c7_intel_O1 date 2020.08.17  20:04:51

 INCAR:
 POTCAR:   PAW_PBE C 08Apr2002
 POTCAR:   PAW_PBE C 08Apr2002
   VRHFIN =C: s2p2

   TITEL  = PAW_PBE C 08Apr2002
   POMASS =   12.011; ZVAL   =    4.000    mass and valenz
   ENMAX  =  400.000; ENMIN  =  300.000 eV
   QCUT   =   -5.516; QGAM   =   11.032    optimization parameters

   Description
     l     E      TYP  RCUT    TYP  RCUT
     0   .000     23  1.200
     0   .000     23  1.200
     1   .000     23  1.500
     1  2.500     23  1.500
     2   .000      7  1.500

 PAW_PBE C 08Apr2002                    :

 POSCAR: generated by phonopy
  positions in direct lattice
 exchange correlation table for  LEXCH =        8
   RHO(1)=    0.500       N(1)  =     2000
   RHO(2)=  100.500       N(2)  =     4000

 ion  position               nearest neighbor table
   1  0.000  0.000  0.000-  10 1.42  16 1.42  12 1.42
   2  0.333  0.000  0.000-  10 1.42  17 1.42  11 1.42
   3  0.667  0.000  0.000-  18 1.42  12 1.42  11 1.42
   4  0.000  0.333  0.000-  10 1.42  15 1.42  13 1.42
   5  0.333  0.333  0.000-  11 1.42  13 1.42  14 1.42
   6  0.667  0.333  0.000-  12 1.42  15 1.42  14 1.42
   7  0.000  0.667  0.000-  18 1.42  16 1.42  13 1.42
   8  0.333  0.667  0.000-  16 1.42  17 1.42  14 1.42
   9  0.667  0.667  0.000-  18 1.42  17 1.42  15 1.42
  10  0.111  0.111  0.000-   1 1.42   2 1.42   4 1.42
  11  0.444  0.111  0.000-   5 1.42   2 1.42   3 1.42
  12  0.778  0.111  0.000-   6 1.42   3 1.42   1 1.42
  13  0.111  0.444  0.000-   5 1.42   4 1.42   7 1.42
  14  0.444  0.444  0.000-   5 1.42   6 1.42   8 1.42
  15  0.778  0.444  0.000-   4 1.42   6 1.42   9 1.42
  16  0.111  0.778  0.000-   8 1.42   7 1.42   1 1.42
  17  0.444  0.778  0.000-   2 1.42   8 1.42   9 1.42
  18  0.778  0.778  0.000-   7 1.42   3 1.42   9 1.42
  19  0.000  0.000  0.222-  30 1.42  34 1.42  28 1.42
  20  0.333  0.000  0.222-  28 1.42  35 1.42  29 1.42
  21  0.667  0.000  0.222-  36 1.42  30 1.42  29 1.42
  22  0.000  0.333  0.222-  28 1.42  33 1.42  31 1.42
  23  0.333  0.333  0.222-  29 1.42  31 1.42  32 1.42
  24  0.667  0.333  0.222-  30 1.42  33 1.42  32 1.42
  25  0.000  0.667  0.222-  36 1.42  34 1.42  31 1.42
  26  0.333  0.667  0.222-  34 1.42  35 1.42  32 1.42
  27  0.667  0.667  0.222-  36 1.42  35 1.42  33 1.42
  28  0.111  0.111  0.222-  20 1.42  22 1.42  19 1.42
  29  0.444  0.111  0.222-  23 1.42  20 1.42  21 1.42
  30  0.778  0.111  0.222-  19 1.42  24 1.42  21 1.42
  31  0.111  0.444  0.222-  23 1.42  22 1.42  25 1.42
  32  0.444  0.444  0.222-  23 1.42  24 1.42  26 1.42
  33  0.778  0.444  0.222-  22 1.42  24 1.42  27 1.42
  34  0.111  0.778  0.222-  26 1.42  19 1.42  25 1.42
  35  0.444  0.778  0.222-  20 1.42  26 1.42  27 1.42
  36  0.778  0.778  0.222-  25 1.42  21 1.42  27 1.42

  LATTYP: Found a hexagonal cell.
 ALAT       =     7.3785360000
 C/A-ratio  =     2.7105648058

  Lattice vectors:

 A1 = (   0.0000000000,  -7.3785360000,   0.0000000000)
 A2 = (  -6.3900000000,   3.6892680000,   0.0000000000)
 A3 = (   0.0000000000,   0.0000000000, -20.0000000000)

Analysis of symmetry for initial positions (statically):
 Subroutine PRICEL returns:
 Original cell was already a primitive cell.

 Routine SETGRP: Setting up the symmetry group for a
 hexagonal supercell.

 Subroutine GETGRP returns: Found  1 space group operations
 (whereof  1 operations were pure point group operations)
 out of a pool of 24 trial point group operations.

The static configuration has the point symmetry C_1 .

Analysis of symmetry for dynamics (positions and initial velocities):
 Subroutine PRICEL returns:
 Original cell was already a primitive cell.

 Routine SETGRP: Setting up the symmetry group for a
 hexagonal supercell.

 Subroutine GETGRP returns: Found  1 space group operations
 (whereof  1 operations were pure point group operations)
 out of a pool of 24 trial point group operations.

The dynamic configuration has the point symmetry C_1 .

 Subroutine INISYM returns: Found  1 space group operations
 (whereof  1 operations are pure point group operations),
 and found     1 'primitive' translations

 KPOINTS: C-4

Automatic generation of k-mesh.
Space group operators:
 irot       det(A)        alpha          n_x          n_y          n_z        tau_x        tau_y        tau_z
    1     1.000000     0.000000     1.000000     0.000000     0.000000     0.000000     0.000000     0.000000

 Subroutine IBZKPT returns following result:

 Found    221 irreducible k-points:

 Following reciprocal coordinates:
            Coordinates               Weight
  0.000000  0.000000  0.000000      1.000000
  0.047619  0.000000  0.000000      2.000000
  0.095238  0.000000  0.000000      2.000000
  0.142857  0.000000  0.000000      2.000000
  0.190476  0.000000  0.000000      2.000000
  0.238095  0.000000  0.000000      2.000000
  0.285714  0.000000  0.000000      2.000000
  0.333333  0.000000  0.000000      2.000000
  0.380952  0.000000  0.000000      2.000000
  0.428571  0.000000  0.000000      2.000000
  0.476190  0.000000  0.000000      2.000000
  0.000000  0.047619  0.000000      2.000000
  0.047619  0.047619  0.000000      2.000000
  0.095238  0.047619  0.000000      2.000000
  0.142857  0.047619  0.000000      2.000000
  0.190476  0.047619  0.000000      2.000000
  0.238095  0.047619  0.000000      2.000000
  0.285714  0.047619  0.000000      2.000000
  0.333333  0.047619  0.000000      2.000000
  0.380952  0.047619  0.000000      2.000000
  0.428571  0.047619  0.000000      2.000000
  0.476190  0.047619  0.000000      2.000000
 -0.476190  0.047619  0.000000      2.000000
 -0.428571  0.047619  0.000000      2.000000
 -0.380952  0.047619  0.000000      2.000000
 -0.333333  0.047619  0.000000      2.000000
 -0.285714  0.047619  0.000000      2.000000
 -0.238095  0.047619  0.000000      2.000000
 -0.190476  0.047619  0.000000      2.000000
 -0.142857  0.047619  0.000000      2.000000
 -0.095238  0.047619  0.000000      2.000000
 -0.047619  0.047619  0.000000      2.000000
  0.000000  0.095238  0.000000      2.000000
  0.047619  0.095238  0.000000      2.000000
  0.095238  0.095238  0.000000      2.000000
  0.142857  0.095238  0.000000      2.000000
  0.190476  0.095238  0.000000      2.000000
  0.238095  0.095238  0.000000      2.000000
  0.285714  0.095238  0.000000      2.000000
  0.333333  0.095238  0.000000      2.000000
  0.380952  0.095238  0.000000      2.000000
  0.428571  0.095238  0.000000      2.000000
  0.476190  0.095238  0.000000      2.000000
 -0.476190  0.095238  0.000000      2.000000
 -0.428571  0.095238  0.000000      2.000000
 -0.380952  0.095238  0.000000      2.000000
 -0.333333  0.095238  0.000000      2.000000
 -0.285714  0.095238  0.000000      2.000000
 -0.238095  0.095238  0.000000      2.000000
 -0.190476  0.095238  0.000000      2.000000
 -0.142857  0.095238  0.000000      2.000000
 -0.095238  0.095238  0.000000      2.000000
 -0.047619  0.095238  0.000000      2.000000
  0.000000  0.142857  0.000000      2.000000
  0.047619  0.142857  0.000000      2.000000
  0.095238  0.142857  0.000000      2.000000
  0.142857  0.142857  0.000000      2.000000
  0.190476  0.142857  0.000000      2.000000
  0.238095  0.142857  0.000000      2.000000
  0.285714  0.142857  0.000000      2.000000
[...]
  0.285714  0.476190  0.000000      2.000000
  0.333333  0.476190  0.000000      2.000000
  0.380952  0.476190  0.000000      2.000000
  0.428571  0.476190  0.000000      2.000000
  0.476190  0.476190  0.000000      2.000000
 -0.476190  0.476190  0.000000      2.000000
 -0.428571  0.476190  0.000000      2.000000
 -0.380952  0.476190  0.000000      2.000000
 -0.333333  0.476190  0.000000      2.000000
 -0.285714  0.476190  0.000000      2.000000
 -0.238095  0.476190  0.000000      2.000000
 -0.190476  0.476190  0.000000      2.000000
 -0.142857  0.476190  0.000000      2.000000
 -0.095238  0.476190  0.000000      2.000000
 -0.047619  0.476190  0.000000      2.000000

 Following cartesian coordinates:
            Coordinates               Weight
  0.000000  0.000000  0.000000      1.000000
  0.003726 -0.006454  0.000000      2.000000
  0.007452 -0.012907  0.000000      2.000000
  0.011178 -0.019361  0.000000      2.000000
  0.014904 -0.025815  0.000000      2.000000
  0.018630 -0.032269  0.000000      2.000000
  0.022356 -0.038722  0.000000      2.000000
  0.026082 -0.045176  0.000000      2.000000
  0.029808 -0.051630  0.000000      2.000000
  0.033535 -0.058084  0.000000      2.000000
  0.037261 -0.064537  0.000000      2.000000
  0.003726  0.006454  0.000000      2.000000
  0.007452 -0.000000  0.000000      2.000000
  0.011178 -0.006454  0.000000      2.000000
  0.014904 -0.012907  0.000000      2.000000
  0.018630 -0.019361  0.000000      2.000000
  0.022356 -0.025815  0.000000      2.000000
  0.026082 -0.032269  0.000000      2.000000
  0.029808 -0.038722  0.000000      2.000000
  0.033535 -0.045176  0.000000      2.000000
  0.037261 -0.051630  0.000000      2.000000
  0.040987 -0.058084  0.000000      2.000000
 -0.033535  0.070991  0.000000      2.000000
 -0.029808  0.064537  0.000000      2.000000
 -0.026082  0.058084  0.000000      2.000000
 -0.022356  0.051630  0.000000      2.000000
 -0.018630  0.045176  0.000000      2.000000
 -0.014904  0.038722  0.000000      2.000000
 -0.011178  0.032269  0.000000      2.000000
 -0.007452  0.025815  0.000000      2.000000
 -0.003726  0.019361  0.000000      2.000000
  0.000000  0.012907  0.000000      2.000000
  0.007452  0.012907  0.000000      2.000000
  0.011178  0.006454  0.000000      2.000000
  0.014904 -0.000000  0.000000      2.000000
  0.018630 -0.006454  0.000000      2.000000
  0.022356 -0.012907  0.000000      2.000000
  0.026082 -0.019361  0.000000      2.000000
  0.029808 -0.025815  0.000000      2.000000
  0.033535 -0.032269  0.000000      2.000000
  0.037261 -0.038722  0.000000      2.000000
  0.040987 -0.045176  0.000000      2.000000
  0.044713 -0.051630  0.000000      2.000000
 -0.029808  0.077445  0.000000      2.000000
 -0.026082  0.070991  0.000000      2.000000
 -0.022356  0.064537  0.000000      2.000000
 -0.018630  0.058084  0.000000      2.000000
 -0.014904  0.051630  0.000000      2.000000
 -0.011178  0.045176  0.000000      2.000000
 -0.007452  0.038722  0.000000      2.000000
 -0.003726  0.032269  0.000000      2.000000
  0.000000  0.025815  0.000000      2.000000
  0.003726  0.019361  0.000000      2.000000
  0.011178  0.019361  0.000000      2.000000
  0.014904  0.012907  0.000000      2.000000
  0.018630  0.006454  0.000000      2.000000
  0.022356  0.000000  0.000000      2.000000
  0.026082 -0.006454  0.000000      2.000000
  0.029808 -0.012907  0.000000      2.000000
  0.033535 -0.019361  0.000000      2.000000
[...]
  0.059617  0.025815  0.000000      2.000000
  0.063343  0.019361  0.000000      2.000000
  0.067069  0.012907  0.000000      2.000000
  0.070795  0.006454  0.000000      2.000000
  0.074521  0.000000  0.000000      2.000000
  0.000000  0.129075  0.000000      2.000000
  0.003726  0.122621  0.000000      2.000000
  0.007452  0.116167  0.000000      2.000000
[...]
  -Hartree energ DENC   =    -26980.53337287
  -exchange      EXHF   =         0.00000000
  -V(xc)+E(xc)   XCENC  =       518.73015137
  PAW double counting   =      2518.56803447    -2565.01709115
  entropy T*S    EENTRO =        -0.00000000
  eigenvalues    EBANDS =     -1494.78425538
  atomic energy  EATOM  =      5297.55924426
  Solvation  Ediel_sol  =         0.00000000
  free energy    TOTEN  =      -332.27719334 eV

  energy without entropy =     -332.27719334  energy(sigma->0) =     -332.27719334

 average (electrostatic) potential at core
  the test charge radii are     0.6991
  (the norm of the test charge is              1.0000)
       1 -56.6349       2 -56.6346       3 -56.6351       4 -56.6357       5 -56.6348
       6 -56.6340       7 -56.6359       8 -56.6338       9 -56.6349      10 -56.6345
      11 -56.6349      12 -56.6353      13 -56.6358      14 -56.6340      15 -56.6349
      16 -56.6349      17 -56.6348      18 -56.6350      19 -56.6348      20 -56.6349
      21 -56.6349      22 -56.6349      23 -56.6349      24 -56.6349      25 -56.6349
      26 -56.6349      27 -56.6349      28 -56.6349      29 -56.6349      30 -56.6348
      31 -56.6349      32 -56.6349      33 -56.6349      34 -56.6349      35 -56.6349
      36 -56.6349

 E-fermi :  -1.2119     XC(G=0):  -4.0274     alpha+bet : -3.8326

 k-point     1 :       0.0000    0.0000    0.0000
  band No.  band energies     occupation
      1     -20.7948      2.00000
      2     -20.7831      2.00000
      3     -18.2022      2.00000
      4     -18.1977      2.00000
      5     -18.1973      2.00000
      6     -18.1973      2.00000
      7     -18.1969      2.00000
      8     -18.1949      2.00000
      9     -18.1903      2.00000
     10     -18.1883      2.00000
     11     -18.1879      2.00000
     12     -18.1879      2.00000
     13     -18.1875      2.00000
     14     -18.1829      2.00000
     15     -13.8342      2.00000
     16     -13.8306      2.00000
     17     -13.8304      2.00000
     18     -13.8289      2.00000
     19     -13.8263      2.00000
     20     -13.8247      2.00000
     21     -13.8246      2.00000
     22     -13.8209      2.00000
     23     -11.8210      2.00000
     24     -11.8202      2.00000
     25     -11.8165      2.00000
     26     -11.8156      2.00000
     27     -10.8702      2.00000
     28     -10.8657      2.00000
     29     -10.8639      2.00000
     30     -10.8639      2.00000
     31     -10.8629      2.00000
     32     -10.8623      2.00000
     33     -10.8613      2.00000
     34     -10.8607      2.00000
     35     -10.8598      2.00000
     36     -10.8598      2.00000
     37     -10.8579      2.00000
     38     -10.8532      2.00000
     39      -8.9734      2.00000
     40      -8.7915      2.00000
     41      -7.0147      2.00000
     42      -7.0066      2.00000
     43      -7.0057      2.00000
     44      -7.0057      2.00000
     45      -7.0053      2.00000
     46      -7.0052      2.00000
     47      -7.0051      2.00000
     48      -7.0050      2.00000
     49      -7.0046      2.00000
     50      -7.0046      2.00000
     51      -7.0037      2.00000
     52      -6.9956      2.00000
     53      -5.9488      2.00000
     54      -5.9457      2.00000
     55      -5.9455      2.00000
     56      -5.9454      2.00000
     57      -5.9453      2.00000
     58      -5.9426      2.00000
     59      -5.7969      2.00000
     60      -5.7942      2.00000
[...]
     82       3.6651      0.00000
     83       3.6653      0.00000
     84       3.6656      0.00000
     85       3.6691      0.00000
     86       3.7761      0.00000
     87       3.7799      0.00000
     88       3.7803      0.00000
     89       3.7804      0.00000
     90       3.7807      0.00000
     91       3.7847      0.00000
     92       4.0037      0.00000
     93       4.6793      0.00000
     94       5.4396      0.00000
     95       5.4401      0.00000
     96       5.4411      0.00000

[...]

 k-point   221 :      -0.0476    0.4762    0.0000
  band No.  band energies     occupation
      1     -20.1327      2.00000
      2     -20.1327      2.00000
      3     -20.1216      2.00000
      4     -20.1216      2.00000
      5     -19.0179      2.00000
      6     -19.0078      2.00000
      7     -18.6504      2.00000
      8     -18.6406      2.00000
      9     -16.5070      2.00000
     10     -16.5070      2.00000
     11     -16.4990      2.00000
     12     -16.4990      2.00000
     13     -16.1677      2.00000
     14     -16.1676      2.00000
     15     -16.1599      2.00000
     16     -16.1598      2.00000
     17     -15.5127      2.00000
     18     -15.5053      2.00000
     19     -14.4920      2.00000
     20     -14.4857      2.00000
     21     -12.9410      2.00000
     22     -12.9391      2.00000
     23     -12.9354      2.00000
     24     -12.9335      2.00000
     25     -12.3489      2.00000
     26     -12.3469      2.00000
     27     -12.3436      2.00000
     28     -12.3416      2.00000
     29      -9.3666      2.00000
     30      -9.3642      2.00000
     31      -9.3629      2.00000
     32      -9.3606      2.00000
     33      -9.2724      2.00000
     34      -9.2694      2.00000
     35      -9.1955      2.00000
     36      -9.1933      2.00000
     37      -9.1921      2.00000
     38      -9.1898      2.00000
     39      -8.6945      2.00000
     40      -8.6918      2.00000
     41      -8.1820      2.00000
     42      -8.1819      2.00000
     43      -8.0069      2.00000
     44      -8.0066      2.00000
     45      -7.8960      2.00000
     46      -7.8938      2.00000
     47      -7.6650      2.00000
     48      -7.6638      2.00000
     49      -7.3939      2.00000
     50      -7.3920      2.00000
     51      -6.8694      2.00000
     52      -6.7066      2.00000
     53      -6.5465      2.00000
     54      -6.5460      2.00000
     55      -6.5446      2.00000
     56      -6.5441      2.00000
     57      -6.4435      2.00000
     58      -6.2852      2.00000
     59      -5.3985      2.00000
     60      -5.3981      2.00000
[...]
     82       1.5896      0.00000
     83       2.8200      0.00000
     84       2.8203      0.00000
     85       3.3923      0.00000
     86       3.3924      0.00000
     87       4.0175      0.00000
     88       4.0179      0.00000
     89       4.3318      0.00000
     90       4.8157      0.00000
     91       4.8336      0.00000
     92       4.8773      0.00000
     93       4.8927      0.00000
     94       4.8931      0.00000
     95       4.9221      0.00000
     96       5.5162      0.00000

 soft charge-density along one line, spin component           1
         0         1         2         3         4         5         6         7         8         9
 total charge-density along one line

------------------------ aborting loop because EDIFF is reached ----------------------------------------

  FORCE on cell =-STRESS in cart. coord.  units (eV):
  Direction    XX          YY          ZZ          XY          YZ          ZX
  Alpha Z   111.98397   111.98397   111.98397
  Ewald   27114.26765 27112.93517-31966.00416     0.38189     0.00423    -0.00740
  Hartree 26777.83531 26777.65555-26574.95732     0.05175     0.00100    -0.00174
  E(xc)    -526.06180  -526.06674  -547.15901     0.00141     0.00001    -0.00001
  Local  -55497.89111-55496.64140 56626.46137    -0.35865    -0.00441     0.00768
  n-local  -127.17700  -127.18780  -115.64757     0.00313    -0.00009     0.00015
  augment   -14.05501   -14.05288   -12.84693    -0.00063    -0.00001     0.00001
  Kinetic  2168.63728  2168.83676  2477.81525    -0.05726     0.00028    -0.00048
  Fock        0.00000     0.00000     0.00000     0.00000     0.00000     0.00000
  Total       7.53929     7.46262    -0.35440     0.02164     0.00102    -0.00179
  in kB      12.80973    12.67947    -0.60215     0.03676     0.00173    -0.00303

 VOLUME and BASIS-vectors are now :
  energy-cutoff  :      800.00
  volume of cell :      942.98
      direct lattice vectors                 reciprocal lattice vectors
     6.390000000 -3.689268000  0.000000000     0.078247261 -0.135528240  0.000000000
     6.390000000  3.689268000  0.000000000     0.078247261  0.135528240  0.000000000
     0.000000000  0.000000000 20.000000000     0.000000000  0.000000000  0.050000000

  length of vectors
     7.378536330  7.378536330 20.000000000     0.156494530  0.156494530  0.050000000

 FORCES acting on ions
    electron-ion (+dipol)            ewald-force                    non-local-force                 convergence-correction
   0.683E+00 -.391E+00 0.304E+03   -.786E+00 0.449E+00 -.303E+03   -.872E-01 0.501E-01 -.182E+00   0.302E-05 -.187E-05 -.682E-05
   -.101E+00 0.579E-01 0.308E+03   0.107E+00 -.620E-01 -.308E+03   0.761E-02 -.622E-02 -.130E-01   -.978E-06 0.189E-05 -.683E-05
   -.101E+00 0.585E-01 0.308E+03   0.107E+00 -.607E-01 -.308E+03   0.896E-02 -.344E-02 -.130E-01   -.208E-05 -.109E-06 -.671E-05
   -.301E-01 -.495E-01 0.308E+03   0.340E-01 0.639E-01 -.308E+03   0.894E-04 -.688E-03 -.130E-01   -.110E-05 -.171E-05 -.684E-05
   -.156E-01 0.859E-02 0.307E+03   0.205E-01 -.114E-01 -.307E+03   -.684E-03 0.425E-03 -.422E-02   0.313E-06 -.750E-07 -.676E-05
   0.274E-01 0.501E-01 0.308E+03   -.381E-01 -.606E-01 -.308E+03   0.670E-03 0.427E-03 -.130E-01   0.985E-06 0.200E-05 -.673E-05
   -.428E-01 -.566E-01 0.308E+03   0.345E-01 0.627E-01 -.308E+03   0.961E-02 0.302E-02 -.130E-01   0.112E-06 0.193E-06 -.679E-05
   0.286E-01 0.667E-01 0.308E+03   -.383E-01 -.627E-01 -.308E+03   0.220E-02 -.100E-01 -.130E-01   -.318E-06 -.127E-06 -.679E-05
   -.150E-01 0.936E-02 0.307E+03   0.186E-01 -.115E-01 -.307E+03   0.333E-03 -.265E-03 -.884E-03   0.138E-06 -.152E-06 -.673E-05
   -.420E+00 -.138E+00 0.308E+03   0.486E+00 0.134E+00 -.308E+03   0.117E-01 -.150E-01 0.848E-01   0.605E-07 -.339E-06 -.668E-05
   -.538E-01 0.319E-01 0.307E+03   0.512E-01 -.305E-01 -.307E+03   0.262E-02 -.151E-02 -.677E-02   -.614E-06 0.432E-06 -.672E-05
   -.972E-01 0.442E+00 0.308E+03   0.134E+00 -.497E+00 -.308E+03   0.181E-01 -.160E-02 0.843E-01   0.412E-06 -.201E-06 -.664E-05
   -.238E-01 -.225E-01 0.307E+03   0.223E-01 0.223E-01 -.307E+03   0.278E-03 0.261E-02 -.678E-02   -.264E-06 -.390E-06 -.679E-05
   0.563E-02 0.307E-01 0.307E+03   -.602E-02 -.292E-01 -.307E+03   -.201E-02 -.148E-02 -.675E-02   0.278E-07 0.363E-06 -.680E-05
   0.203E-01 -.131E-01 0.307E+03   -.163E-01 0.109E-01 -.307E+03   0.291E-02 -.156E-02 0.131E-02   -.833E-07 -.350E-06 -.676E-05
   0.235E+00 -.143E+00 0.308E+03   -.227E+00 0.140E+00 -.308E+03   0.257E-01 -.152E-01 0.846E-01   0.576E-06 -.152E-06 -.661E-05
   -.265E-01 0.708E-01 0.307E+03   0.270E-01 -.670E-01 -.307E+03   0.758E-03 0.200E-02 0.128E-02   -.296E-06 0.639E-06 -.678E-05
   -.729E-01 -.117E-01 0.307E+03   0.698E-01 0.936E-02 -.307E+03   -.156E-02 -.164E-02 0.134E-02   -.740E-07 -.773E-07 -.670E-05
   0.356E-02 -.200E-02 -.307E+03   -.392E-02 0.222E-02 0.307E+03   -.164E-04 0.767E-05 0.168E-02   0.198E-06 -.220E-06 0.292E-05
   -.113E-01 0.705E-02 -.307E+03   0.113E-01 -.695E-02 0.307E+03   0.603E-05 0.551E-04 0.149E-02   -.691E-07 0.189E-06 0.296E-05
   0.782E-02 -.542E-02 -.307E+03   -.792E-02 0.549E-02 0.307E+03   -.175E-03 0.172E-04 0.160E-02   -.172E-06 -.416E-07 0.291E-05
   -.963E-02 -.788E-02 -.307E+03   0.954E-02 0.784E-02 0.307E+03   -.309E-04 -.248E-04 0.150E-02   0.110E-06 -.223E-06 0.296E-05
   -.243E-02 0.104E-02 -.307E+03   0.216E-02 -.889E-03 0.307E+03   -.332E-04 0.452E-04 0.158E-02   -.260E-06 0.130E-06 0.296E-05
   0.185E-02 -.111E-01 -.307E+03   -.198E-02 0.113E-01 0.307E+03   -.630E-05 0.152E-03 0.159E-02   0.725E-07 -.144E-07 0.290E-05
   0.967E-02 0.460E-02 -.307E+03   -.970E-02 -.460E-02 0.307E+03   -.959E-04 0.685E-05 0.156E-02   -.533E-08 -.727E-07 0.297E-05
   0.176E-02 0.133E-01 -.307E+03   -.198E-02 -.135E-01 0.307E+03   -.695E-04 -.892E-04 0.153E-02   -.199E-08 0.229E-06 0.294E-05
   -.718E-03 0.105E-02 -.307E+03   0.288E-03 -.894E-03 0.307E+03   -.193E-03 0.389E-04 0.153E-02   0.125E-06 0.462E-07 0.295E-05
   -.116E-01 -.161E-02 -.307E+03   0.118E-01 0.163E-02 0.307E+03   0.128E-03 -.110E-04 0.151E-02   -.303E-08 0.341E-07 0.289E-05
   -.449E-02 0.147E-02 -.307E+03   0.461E-02 -.162E-02 0.307E+03   0.293E-04 -.343E-04 0.156E-02   0.315E-07 0.710E-07 0.296E-05
   0.875E-02 -.120E-01 -.307E+03   -.862E-02 0.118E-01 0.307E+03   0.215E-04 -.437E-04 0.169E-02   -.462E-07 -.237E-06 0.294E-05
   -.253E-02 -.134E-02 -.307E+03   0.276E-02 0.124E-02 0.307E+03   0.819E-04 -.211E-04 0.154E-02   0.554E-07 0.515E-07 0.298E-05
   0.145E-02 0.176E-02 -.307E+03   -.104E-02 -.178E-02 0.307E+03   0.209E-03 0.178E-04 0.159E-02   -.194E-06 0.103E-06 0.296E-05
   -.403E-02 -.969E-02 -.307E+03   0.406E-02 0.985E-02 0.307E+03   0.724E-04 0.535E-04 0.153E-02   0.263E-06 -.670E-07 0.295E-05
   0.947E-02 0.101E-01 -.307E+03   -.947E-02 -.100E-01 0.307E+03   -.170E-04 -.449E-04 0.160E-02   -.145E-06 0.109E-06 0.296E-05
   -.523E-02 0.111E-01 -.307E+03   0.542E-02 -.115E-01 0.307E+03   0.897E-04 -.111E-03 0.151E-02   0.907E-07 -.179E-07 0.292E-05
   0.763E-02 -.346E-03 -.307E+03   -.732E-02 0.373E-03 0.307E+03   -.179E-05 -.139E-04 0.156E-02   0.719E-07 -.163E-06 0.299E-05
   -.141E-04 -.141E-04 0.491E-04   -.571E-13 -.624E-13 0.114E-11   0.156E-04 0.137E-04 0.209E-04   -.347E-07 -.123E-06 -.684E-04

 POSITION                                       TOTAL-FORCE (eV/Angst)
      0.00300     -0.00173      0.00938        -0.189394      0.108197     -0.134082
      2.13000     -1.22975      0.00000         0.012807     -0.010315     -0.005520
      4.26000     -2.45951      0.00000         0.015053     -0.005631     -0.005353
      2.13000      1.22975      0.00000         0.004005      0.013723     -0.005452
      4.26000      0.00000      0.00000         0.004269     -0.002430      0.001317
      6.39000     -1.22976      0.00000        -0.010034     -0.010034     -0.005420
      4.26000      2.45951      0.00000         0.001295      0.009078     -0.005369
      6.39000      1.22976      0.00000        -0.007522     -0.006077     -0.005503
      8.52000     -0.00000      0.00000         0.003950     -0.002428      0.001317
      1.42000      0.00000      0.00000         0.077676     -0.018796      0.056823
      3.55000     -1.22975      0.00000         0.000081     -0.000161     -0.009386
      5.68000     -2.45951      0.00000         0.054951     -0.057339      0.057670
      3.55000      1.22975      0.00000        -0.001229      0.002465     -0.009368
      5.67999      0.00000      0.00000        -0.002397      0.000017     -0.009404
      7.81000     -1.22976      0.00000         0.006965     -0.003752      0.002521
      5.68000      2.45951      0.00000         0.032961     -0.018347      0.057253
      7.81000      1.22976      0.00000         0.001253      0.005768      0.002517
      9.94000     -0.00000      0.00000        -0.004687     -0.003939      0.002525
      0.00000      0.00000      4.43868        -0.000380      0.000222      0.000774
      2.13000     -1.22975      4.43868         0.000045      0.000154      0.000705
      4.26000     -2.45951      4.43868        -0.000269      0.000085      0.000708
      2.13000      1.22975      4.43868        -0.000123     -0.000067      0.000703
      4.26000      0.00000      4.43868        -0.000305      0.000198      0.000713
      6.39000     -1.22976      4.43868        -0.000133      0.000376      0.000710
      4.26000      2.45951      4.43868        -0.000122      0.000002      0.000704
      6.39000      1.22976      4.43868        -0.000290     -0.000307      0.000709
      8.52000     -0.00000      4.43868        -0.000624      0.000198      0.000713
      1.42000      0.00000      4.43868         0.000296      0.000007      0.000720
      3.55000     -1.22975      4.43868         0.000147     -0.000181      0.000715
      5.68000     -2.45951      4.43868         0.000154     -0.000294      0.000742
      3.55000      1.22975      4.43868         0.000313     -0.000117      0.000717
      5.67999      0.00000      4.43868         0.000619     -0.000005      0.000714
      7.81000     -1.22976      4.43868         0.000099      0.000220      0.000713
      5.68000      2.45951      4.43868        -0.000018      0.000010      0.000731
      7.81000      1.22976      4.43868         0.000281     -0.000511      0.000713
      9.94000     -0.00000      4.43868         0.000305      0.000013      0.000714
    total drift:                                0.000001     -0.000001      0.000002

  FREE ENERGIE OF THE ION-ELECTRON SYSTEM (eV)
  free  energy   TOTEN  =      -332.27719334 eV

  energy  without entropy=     -332.27719334  energy(sigma->0) =     -332.27719334