 vasp.5.4.4.18Apr17-6-g9f103f2a35 (build May 31 2018 21:15:54) complex

 executed on          c7_intel_O1 date 2020.08.12  12:17:31

 INCAR:
 POTCAR:   PAW_PBE W 08Apr2002
 POTCAR:   PAW_PBE Se 06Sep2000
 POTCAR:   PAW_PBE W 08Apr2002
   VRHFIN =W : 6s5d

   TITEL  = PAW_PBE W 08Apr2002
   POMASS =  183.850; ZVAL   =    6.000    mass and valenz
   ENMAX  =  223.057; ENMIN  =  167.293 eV
   QCUT   =   -4.049; QGAM   =    8.098    optimization parameters

   Description
     l     E      TYP  RCUT    TYP  RCUT
     2   .000     23  2.500
     2   .000     23  2.500
     0   .000     23  2.500
     0   .000     23  2.500
     1   .200     23  2.750
     1  2.000     23  2.750
     3   .000      7   .000

 POTCAR:   PAW_PBE Se 06Sep2000
   VRHFIN =Se: s2p4

   TITEL  = PAW_PBE Se 06Sep2000
   POMASS =   78.960; ZVAL   =    6.000    mass and valenz
   ENMAX  =  211.534; ENMIN  =  158.651 eV
   QCUT   =   -3.943; QGAM   =    7.886    optimization parameters

   Description
     l     E      TYP  RCUT    TYP  RCUT
     0   .000     23  2.100
     0   .000     23  2.100
     1   .000     23  2.100
     1   .000     23  2.100
     2   .000     23  2.100
     3  -.100      7  2.100

 WARNING: PSMAXN for non-local potential too small
          PSMAXN should be >   14.4904333269122       NTYP=           1
 PAW_PBE W 08Apr2002                    :
 PAW_PBE Se 06Sep2000                   :

 POSCAR: WSe2 Mono
  positions in direct lattice
  velocities in cartesian coordinates
 exchange correlation table for  LEXCH =        8
   RHO(1)=    0.500       N(1)  =     2000
   RHO(2)=  100.500       N(2)  =     4000

 ion  position               nearest neighbor table
   1  1.000  0.000  0.000-   2 2.54   3 2.54   2 2.54   3 2.54   2 2.54   3 2.54
   2  0.333  0.333  0.915-   1 2.54   1 2.54   1 2.54
   3  0.333  0.333  0.085-   1 2.54   1 2.54   1 2.54

  LATTYP: Found a base centered orthorhombic cell.
 ALAT       =     3.2820000000
 B/A-ratio  =     1.7309445460
 C/A-ratio  =     6.0938452163

  Lattice vectors:

 A1 = (  -1.6410000000,  -2.8404800000,   0.0000000000)
 A2 = (  -1.6410000000,   2.8404800000,   0.0000000000)
 A3 = (   0.0000000000,   0.0000000000, -20.0000000000)

Analysis of symmetry for initial positions (statically):
 Subroutine PRICEL returns:
 Original cell was already a primitive cell.

 Routine SETGRP: Setting up the symmetry group for a
 base centered orthorhombic supercell.

 Subroutine GETGRP returns: Found  4 space group operations
 (whereof  4 operations were pure point group operations)
 out of a pool of  8 trial point group operations.

The static configuration has the point symmetry C_2v.

Analysis of symmetry for dynamics (positions and initial velocities):
 Subroutine PRICEL returns:
 Original cell was already a primitive cell.

 Routine SETGRP: Setting up the symmetry group for a
 base centered orthorhombic supercell.

 Subroutine GETGRP returns: Found  4 space group operations
 (whereof  4 operations were pure point group operations)
 out of a pool of  8 trial point group operations.

The dynamic configuration has the point symmetry C_2v.

 Subroutine INISYM returns: Found  4 space group operations
 (whereof  4 operations are pure point group operations),
 and found     1 'primitive' translations

 KPOINTS: W-1, Se-2

Automatic generation of k-mesh.
Space group operators:
 irot       det(A)        alpha          n_x          n_y          n_z        tau_x        tau_y        tau_z
    1     1.000000     0.000000     1.000000     0.000000     0.000000     0.000000     0.000000     0.000000
    2    -1.000000   180.000000     0.000000     0.000000     1.000000     0.000000     0.000000     0.000000
    3     1.000000   180.000000     0.000000     1.000000     0.000000     0.000000     0.000000     0.000000
    4    -1.000000   180.000000     1.000000    -0.000000     0.000000     0.000000     0.000000     0.000000

 Subroutine IBZKPT returns following result:

 Found    121 irreducible k-points:

 Following reciprocal coordinates:
            Coordinates               Weight
  0.000000  0.000000  0.000000      1.000000
  0.047619  0.000000  0.000000      4.000000
  0.095238  0.000000  0.000000      4.000000
  0.142857  0.000000  0.000000      4.000000
  0.190476  0.000000  0.000000      4.000000
  0.238095  0.000000  0.000000      4.000000
  0.285714  0.000000  0.000000      4.000000
  0.333333  0.000000  0.000000      4.000000
  0.380952  0.000000  0.000000      4.000000
  0.428571  0.000000  0.000000      4.000000
  0.476190  0.000000  0.000000      4.000000
  0.000000  0.047619  0.000000      2.000000
  0.095238  0.047619  0.000000      2.000000
  0.142857  0.047619  0.000000      4.000000
  0.190476  0.047619  0.000000      4.000000
  0.238095  0.047619  0.000000      4.000000
  0.285714  0.047619  0.000000      4.000000
  0.333333  0.047619  0.000000      4.000000
  0.380952  0.047619  0.000000      4.000000
  0.428571  0.047619  0.000000      4.000000
  0.476190  0.047619  0.000000      4.000000
 -0.476190  0.047619  0.000000      4.000000
 -0.428571  0.047619  0.000000      4.000000
 -0.380952  0.047619  0.000000      4.000000
 -0.333333  0.047619  0.000000      4.000000
 -0.285714  0.047619  0.000000      4.000000
 -0.238095  0.047619  0.000000      4.000000
 -0.190476  0.047619  0.000000      4.000000
 -0.142857  0.047619  0.000000      4.000000
 -0.095238  0.047619  0.000000      4.000000
 -0.047619  0.047619  0.000000      4.000000
  0.000000  0.095238  0.000000      2.000000
  0.190476  0.095238  0.000000      2.000000
  0.238095  0.095238  0.000000      4.000000
  0.285714  0.095238  0.000000      4.000000
  0.333333  0.095238  0.000000      4.000000
  0.380952  0.095238  0.000000      4.000000
  0.428571  0.095238  0.000000      4.000000
  0.476190  0.095238  0.000000      4.000000
 -0.476190  0.095238  0.000000      4.000000
 -0.428571  0.095238  0.000000      4.000000
 -0.380952  0.095238  0.000000      4.000000
 -0.333333  0.095238  0.000000      4.000000
 -0.285714  0.095238  0.000000      4.000000
 -0.238095  0.095238  0.000000      4.000000
 -0.190476  0.095238  0.000000      4.000000
 -0.142857  0.095238  0.000000      4.000000
 -0.095238  0.095238  0.000000      4.000000
 -0.047619  0.095238  0.000000      4.000000
  0.000000  0.142857  0.000000      2.000000
  0.285714  0.142857  0.000000      2.000000
  0.333333  0.142857  0.000000      4.000000
  0.380952  0.142857  0.000000      4.000000
  0.428571  0.142857  0.000000      4.000000
  0.476190  0.142857  0.000000      4.000000
 -0.476190  0.142857  0.000000      4.000000
 -0.428571  0.142857  0.000000      4.000000
 -0.380952  0.142857  0.000000      4.000000
 -0.333333  0.142857  0.000000      4.000000
 -0.285714  0.142857  0.000000      4.000000
[...]
 -0.142857  0.333333  0.000000      4.000000
 -0.095238  0.333333  0.000000      4.000000
 -0.047619  0.333333  0.000000      4.000000
  0.000000  0.380952  0.000000      2.000000
 -0.238095  0.380952  0.000000      2.000000
 -0.190476  0.380952  0.000000      4.000000
 -0.142857  0.380952  0.000000      4.000000
 -0.095238  0.380952  0.000000      4.000000
 -0.047619  0.380952  0.000000      4.000000
  0.000000  0.428571  0.000000      2.000000
 -0.142857  0.428571  0.000000      2.000000
 -0.095238  0.428571  0.000000      4.000000
 -0.047619  0.428571  0.000000      4.000000
  0.000000  0.476190  0.000000      2.000000
 -0.047619  0.476190  0.000000      2.000000

 Following cartesian coordinates:
            Coordinates               Weight
  0.000000  0.000000  0.000000      1.000000
  0.014509 -0.008382  0.000000      4.000000
  0.029018 -0.016764  0.000000      4.000000
  0.043527 -0.025147  0.000000      4.000000
  0.058037 -0.033529  0.000000      4.000000
  0.072546 -0.041911  0.000000      4.000000
  0.087055 -0.050293  0.000000      4.000000
  0.101564 -0.058676  0.000000      4.000000
  0.116073 -0.067058  0.000000      4.000000
  0.130582 -0.075440  0.000000      4.000000
  0.145092 -0.083822  0.000000      4.000000
  0.000000  0.016764  0.000000      2.000000
  0.029018  0.000000  0.000000      2.000000
  0.043527 -0.008382  0.000000      4.000000
  0.058037 -0.016764  0.000000      4.000000
  0.072546 -0.025147  0.000000      4.000000
  0.087055 -0.033529  0.000000      4.000000
  0.101564 -0.041911  0.000000      4.000000
  0.116073 -0.050293  0.000000      4.000000
  0.130582 -0.058676  0.000000      4.000000
  0.145092 -0.067058  0.000000      4.000000
 -0.145092  0.100587  0.000000      4.000000
 -0.130582  0.092204  0.000000      4.000000
 -0.116073  0.083822  0.000000      4.000000
 -0.101564  0.075440  0.000000      4.000000
 -0.087055  0.067058  0.000000      4.000000
 -0.072546  0.058676  0.000000      4.000000
 -0.058037  0.050293  0.000000      4.000000
 -0.043527  0.041911  0.000000      4.000000
 -0.029018  0.033529  0.000000      4.000000
 -0.014509  0.025147  0.000000      4.000000
  0.000000  0.033529  0.000000      2.000000
  0.058037 -0.000000  0.000000      2.000000
  0.072546 -0.008382  0.000000      4.000000
  0.087055 -0.016764  0.000000      4.000000
  0.101564 -0.025147  0.000000      4.000000
  0.116073 -0.033529  0.000000      4.000000
  0.130582 -0.041911  0.000000      4.000000
  0.145092 -0.050293  0.000000      4.000000
 -0.145092  0.117351  0.000000      4.000000
 -0.130582  0.108969  0.000000      4.000000
 -0.116073  0.100587  0.000000      4.000000
 -0.101564  0.092204  0.000000      4.000000
 -0.087055  0.083822  0.000000      4.000000
 -0.072546  0.075440  0.000000      4.000000
 -0.058037  0.067058  0.000000      4.000000
 -0.043527  0.058676  0.000000      4.000000
 -0.029018  0.050293  0.000000      4.000000
 -0.014509  0.041911  0.000000      4.000000
  0.000000  0.050293  0.000000      2.000000
  0.087055  0.000000  0.000000      2.000000
  0.101564 -0.008382  0.000000      4.000000
  0.116073 -0.016764  0.000000      4.000000
  0.130582 -0.025147  0.000000      4.000000
  0.145092 -0.033529  0.000000      4.000000
 -0.145092  0.134115  0.000000      4.000000
 -0.130582  0.125733  0.000000      4.000000
 -0.116073  0.117351  0.000000      4.000000
 -0.101564  0.108969  0.000000      4.000000
 -0.087055  0.100587  0.000000      4.000000
[...]
 -0.043527  0.142498  0.000000      4.000000
 -0.029018  0.134115  0.000000      4.000000
 -0.014509  0.125733  0.000000      4.000000
  0.000000  0.134115  0.000000      2.000000
 -0.072546  0.176027  0.000000      2.000000
 -0.058037  0.167644  0.000000      4.000000
 -0.043527  0.159262  0.000000      4.000000
 -0.029018  0.150880  0.000000      4.000000
 -0.014509  0.142498  0.000000      4.000000
  0.000000  0.150880  0.000000      2.000000
 -0.043527  0.176027  0.000000      2.000000
 -0.029018  0.167644  0.000000      4.000000
 -0.014509  0.159262  0.000000      4.000000
  0.000000  0.167644  0.000000      2.000000
 -0.014509  0.176027  0.000000      2.000000

 SYSTEM =  W-1, se-2
 POSCAR =  WSe2 Mono

 Startparameter for this run:
   NWRITE =      2    write-flag & timer
   PREC   = accura    normal or accurate (medium, high low for compatibility)
   ISTART =      0    job   : 0-new  1-cont  2-samecut
[...]
 k-point ** :  -0.1905 0.3333 0.0000  plane waves:    9543
 k-point ** :  -0.1429 0.3333 0.0000  plane waves:    9557
 k-point ** :  -0.0952 0.3333 0.0000  plane waves:    9570
 k-point ** :  -0.0476 0.3333 0.0000  plane waves:    9591
 k-point ** :   0.0000 0.3810 0.0000  plane waves:    9579
 k-point ** :  -0.2381 0.3810 0.0000  plane waves:    9518
 k-point ** :  -0.1905 0.3810 0.0000  plane waves:    9544
 k-point ** :  -0.1429 0.3810 0.0000  plane waves:    9555
 k-point ** :  -0.0952 0.3810 0.0000  plane waves:    9567
 k-point ** :  -0.0476 0.3810 0.0000  plane waves:    9566
 k-point ** :   0.0000 0.4286 0.0000  plane waves:    9545
 k-point ** :  -0.1429 0.4286 0.0000  plane waves:    9558
 k-point ** :  -0.0952 0.4286 0.0000  plane waves:    9561
 k-point ** :  -0.0476 0.4286 0.0000  plane waves:    9550
 k-point ** :   0.0000 0.4762 0.0000  plane waves:    9538
 k-point ** :  -0.0476 0.4762 0.0000  plane waves:    9552

 maximum and minimum number of plane-waves per node :      1641     1559

 maximum number of plane-waves:      9641
 maximum index in each direction:
   IXMAX=    8   IYMAX=    7   IZMAX=   46
   IXMIN=   -8   IYMIN=   -8   IZMIN=  -46

 parallel 3D FFT for wavefunctions:
    minimum data exchange during FFTs selected (reduces bandwidth)
 parallel 3D FFT for charge:
    minimum data exchange during FFTs selected (reduces bandwidth)

 Broyden mixing: mesh for mixing (old mesh)
   NGX = 15   NGY = 15   NGZ = 93
  (NGX  = 60   NGY  = 60   NGZ  =384)
  gives a total of  20925 points

 initial charge density was supplied:
 charge density of overlapping atoms calculated
 number of electron      18.0000000 magnetization
 keeping initial charge density in first step

 Maximum index for augmentation-charges        15399 (set IRDMAX)

 First call to EWALD:  gamma=   0.310
 Maximum number of real-space cells 5x 5x 1
 Maximum number of reciprocal cells 2x 2x 8

--------------------------------------- Iteration      1(   1)  ---------------------------------------

 eigenvalue-minimisations  :  4356
 total energy-change (2. order) : 0.1249577E+03  (-0.7808079E+03)
 number of electron      18.0000000 magnetization
 augmentation part       18.0000000 magnetization

 Free energy of the ion-electron system (eV)
  alpha Z        PSCENC =        22.94334738
  Ewald energy   TEWEN  =      2158.26868162
  -Hartree energ DENC   =     -2819.40721861
  -exchange      EXHF   =         0.00000000
  -V(xc)+E(xc)   XCENC  =       -48.79646308
  PAW double counting   =       394.08237266     -307.39168671
  entropy T*S    EENTRO =        -0.00011520
  eigenvalues    EBANDS =         6.72068670
  atomic energy  EATOM  =       718.53809099
  Solvation  Ediel_sol  =         0.00000000
  free energy    TOTEN  =       124.95769575 eV

  energy without entropy =      124.95781095  energy(sigma->0) =      124.95775335

[...]

 eigenvalue-minimisations  :  7026
 total energy-change (2. order) :-0.1358030E+03  (-0.1282275E+03)
 number of electron      18.0000000 magnetization
 augmentation part       18.0000000 magnetization

[...]

 Broyden mixing:
  rms(total) = 0.53553E+00    rms(broyden)= 0.53552E+00
  rms(prec ) = 0.61039E+00
  weight for this iteration     100.00

[...]

 eigenvalues of (default mixing * dielectric matrix)
  average eigenvalue GAMMA=   1.0040
  1.0040

[...]

 average (electrostatic) potential at core
  the test charge radii are     1.1823  1.0808
  (the norm of the test charge is              1.0000)
       1 -47.5180       2 -60.1210       3 -60.1210

 E-fermi :  -1.6884     XC(G=0):  -3.9941     alpha+bet : -3.5498

 k-point     1 :       0.0000    0.0000    0.0000
  band No.  band energies     occupation
      1     -16.5476      2.00000
      2     -15.3662      2.00000
      3      -8.0046      2.00000
      4      -4.0501      2.00000
      5      -4.0462      2.00000
      6      -4.0390      2.00000
      7      -2.9152      2.00000
      8      -2.9103      2.00000
      9      -2.2360      2.00000
     10       1.2287      0.00000
     11       1.2323      0.00000
     12       1.3696      0.00000
     13       1.3761      0.00000
     14       2.4991      0.00000
     15       2.9588      0.00000
     16       3.4405      0.00000
     17       4.1583      0.00000
     18       4.9104      0.00000

[...]

 soft charge-density along one line, spin component           1
         0         1         2         3         4         5         6         7         8         9
 total charge-density along one line

------------------------ aborting loop because EDIFF is reached ----------------------------------------

  FORCE on cell =-STRESS in cart. coord.  units (eV):
  Direction    XX          YY          ZZ          XY          YZ          ZX
  Alpha Z    22.94335    22.94335    22.94335
  Ewald    2703.62692  2703.71518 -3249.07350    -0.00000     0.00000     0.00000
  Hartree  2805.80522  2805.83728 -2779.91465     0.00000    -0.00000    -0.00000
  E(xc)     -71.38512   -71.38739   -72.23289     0.00000    -0.00000    -0.00000
  Local   -5748.03739 -5748.16368  5788.32214     0.00000    -0.00000     0.00000
  n-local    69.48111    69.48029    74.89878    -0.01096     0.00000     0.00000
  augment    -2.78705    -2.78618    -3.50638    -0.00000    -0.00000    -0.00000
  Kinetic   221.27516   221.32334   218.56346     5.31498    -0.00000     0.00000
  Fock        0.00000     0.00000     0.00000     0.00000     0.00000     0.00000
  Total       0.92220     0.96219     0.00030     0.00000     0.00000     0.00000
  in kB       7.92453     8.26819     0.00261     0.00000     0.00000     0.00000

 VOLUME and BASIS-vectors are now :
  energy-cutoff  :      800.00
  volume of cell :      186.45
      direct lattice vectors                 reciprocal lattice vectors
     3.282000000  0.000000000  0.000000000     0.304692261 -0.176026587  0.000000000
     1.641000000  2.840480000  0.000000000     0.000000000  0.352053174  0.000000000
     0.000000000  0.000000000 20.000000000     0.000000000  0.000000000  0.050000000

[...]

 FORCES acting on ions
    electron-ion (+dipol)            ewald-force                    non-local-force                 convergence-correction
   0.991E-08 -.511E-01 -.126E-08   0.214E-11 0.515E-01 0.000E+00   0.174E-16 -.420E-03 0.000E+00   0.918E-14 0.875E-08 0.162E-12
   0.227E-07 0.268E-01 0.498E+03   -.107E-11 -.258E-01 -.500E+03   -.793E-18 -.973E-03 0.260E+01   -.171E-13 -.163E-07 0.975E-06
   0.219E-07 0.268E-01 -.498E+03   -.107E-11 -.258E-01 0.500E+03   -.100E-17 -.973E-03 -.260E+01   -.235E-13 -.163E-07 -.975E-06
   0.545E-07 0.237E-02 -.124E-08   -.199E-15 0.408E-14 0.000E+00   0.156E-16 -.237E-02 0.000E+00   -.314E-13 -.239E-07 0.426E-12

 POSITION                                       TOTAL-FORCE (eV/Angst)
      3.28200      0.00057      0.00000        -0.000000     -0.000023     -0.000000
      1.64100      0.94715     18.30918         0.000000      0.000011      0.000034
      1.64100      0.94715      1.69082        -0.000000      0.000011     -0.000034
    total drift:                                0.000000      0.000006     -0.000000

  FREE ENERGIE OF THE ION-ELECTRON SYSTEM (eV)
  free  energy   TOTEN  =       -21.63238341 eV

  energy  without entropy=      -21.63238341  energy(sigma->0) =      -21.63238341

[...]

 Broyden mixing:
  rms(total) = 0.65198E-06    rms(broyden)= 0.61378E-06
  rms(prec ) = 0.68617E-06
  weight for this iteration     100.00

[...]

 Broyden mixing:
  rms(total) = 0.44685E-06    rms(broyden)= 0.38901E-06
  rms(prec ) = 0.41946E-06
  weight for this iteration     100.00
  WARNING: grid for Broyden might be to small

[...]

 eigenvalue-minimisations  :  3150
 total energy-change (2. order) :-0.8724328E-09  ( 0.6180936E-12)
 number of electron      18.0000000 magnetization
 augmentation part       -1.5320869 magnetization

[...]

 d Force = 0.7677675E-10[ 0.412E-11, 0.149E-09]  d Energy = 0.4038839E-08-0.396E-08
 d Force =-0.1647381E-02[-0.165E-02,-0.165E-02]  d Ewald  =-0.1647381E-02 0.218E-10

 Steepest descent step on ions:
 trial-energy change:   -0.000000  1 .order   -0.000000   -0.000000   -0.000000
  (g-gl).g = 0.149E-09      g.g   = 0.149E-09  gl.gl    = 0.000E+00
 g(Force)  = 0.149E-09   g(Stress)= 0.000E+00 ortho     = 0.000E+00
 gamma     =   0.00000
 trial     =   1.00000
 opt step  =   1.02834  (harmonic =   1.02834) maximal distance =0.00000169
 next E    =   -21.632383   (d E  =  -0.00000)

[...]

 d Force = 0.7422536E-13[ 0.317E-13, 0.117E-12]  d Energy = 0.2834213E-09-0.283E-09
 d Force =-0.4668480E-04[-0.467E-04,-0.467E-04]  d Ewald  =-0.4668473E-04-0.678E-10

[...]

 eigenvalue-minimisations  :  3420
 total energy-change (2. order) : 0.1557510E-10  (-0.4983167E-10)
 number of electron      18.0000000 magnetization
 augmentation part       -1.5320868 magnetization

[...]

 d Force = 0.2916240E-11[-0.134E-11, 0.717E-11]  d Energy = 0.5387619E-09-0.536E-09
 d Force =-0.2857004E-03[-0.286E-03,-0.286E-03]  d Ewald  =-0.2857005E-03 0.678E-10

 Conjugate gradient step on ions:
 trial-energy change:   -0.000000  1 .order   -0.000000   -0.000000    0.000000
  (g-gl).g = 0.596E-11      g.g   = 0.708E-11  gl.gl    = 0.149E-09
 g(Force)  = 0.708E-11   g(Stress)= 0.000E+00 ortho     = 0.112E-11
 gamma     =   0.03991
 trial     =   1.00567
 opt step  =   0.84761  (harmonic =   0.84761) maximal distance =0.00000031
 next E    =   -21.632383   (d E  =  -0.00000)

[...]

 eigenvalue-minimisations  :  2292
 total energy-change (2. order) :-0.6093615E-10  (-0.2278349E-12)
 number of electron      18.0000000 magnetization
 augmentation part       -1.5320868 magnetization

[...]

 eigenvalue-minimisations  :  2274
 total energy-change (2. order) : 0.3103651E-10  ( 0.1043974E-11)
 number of electron      18.0000000 magnetization
 augmentation part       -1.5320868 magnetization

[...]

 d Force = 0.9062980E-13[-0.289E-13, 0.210E-12]  d Energy =-0.1052740E-09 0.105E-09
 d Force = 0.4490330E-04[ 0.449E-04, 0.449E-04]  d Ewald  = 0.4490327E-04 0.259E-10

[...]

 d Force = 0.1569858E-14[-0.347E-15, 0.349E-14]  d Energy = 0.9640644E-10-0.964E-10
 d Force =-0.5423478E-05[-0.542E-05,-0.542E-05]  d Ewald  =-0.5423404E-05-0.737E-10

[...]

 d Force = 0.1342474E-16[-0.451E-17, 0.314E-16]  d Energy = 0.2501110E-11-0.250E-11
 d Force = 0.4905616E-06[ 0.491E-06, 0.491E-06]  d Ewald  = 0.4905723E-06-0.109E-10

[...]

 d Force = 0.2657821E-18[-0.348E-19, 0.566E-18]  d Energy =-0.1409717E-10 0.141E-10
 d Force =-0.6166432E-07[-0.617E-07,-0.617E-07]  d Ewald  =-0.6168329E-07 0.191E-10

[...]

 eigenvalue-minimisations  :  2232
 total energy-change (2. order) : 0.8412826E-11  ( 0.9338723E-12)
 number of electron      18.0000000 magnetization
 augmentation part       -1.5320868 magnetization

[...]

 Broyden mixing:
  rms(total) = 0.21989E-06    rms(broyden)= 0.21914E-08
  rms(prec ) = 0.23734E-08
  weight for this iteration     100.00
  WARNING: grid for Broyden might be to small

 eigenvalues of (default mixing * dielectric matrix)
  average eigenvalue GAMMA=   1.4959
  2.3976  1.3068  0.7833

[...]

--------------------------------------- Iteration      9(   5)  ---------------------------------------

 eigenvalue-minimisations  :  2232
 total energy-change (2. order) :-0.1887202E-10  ( 0.9849395E-12)
 number of electron      18.0000000 magnetization
 augmentation part       -1.5320868 magnetization

 Free energy of the ion-electron system (eV)
  alpha Z        PSCENC =        22.94334738
  Ewald energy   TEWEN  =      2158.27063665
  -Hartree energ DENC   =     -2831.72972899
  -exchange      EXHF   =         0.00000000
  -V(xc)+E(xc)   XCENC  =       -47.72561450
  PAW double counting   =       466.08160357     -380.96792298
  entropy T*S    EENTRO =        -0.00000000
  eigenvalues    EBANDS =      -127.04279554
  atomic energy  EATOM  =       718.53809099
  Solvation  Ediel_sol  =         0.00000000
  free energy    TOTEN  =       -21.63238341 eV

  energy without entropy =      -21.63238341  energy(sigma->0) =      -21.63238341

 average (electrostatic) potential at core
  the test charge radii are     1.1823  1.0808
  (the norm of the test charge is              1.0000)
       1 -47.5180       2 -60.1210       3 -60.1210

 E-fermi :  -1.6884     XC(G=0):  -3.9940     alpha+bet : -3.5498

[...]

 k-point   121 :      -0.0476    0.4762    0.0000
  band No.  band energies     occupation
      1     -14.5241      2.00000
      2     -14.2979      2.00000
      3      -8.1094      2.00000
      4      -6.9509      2.00000
      5      -5.9519      2.00000
      6      -4.7603      2.00000
      7      -3.9801      2.00000
      8      -3.0978      2.00000
      9      -2.4400      2.00000
     10       0.6745      0.00000
     11       1.0308      0.00000
     12       2.0061      0.00000
     13       2.4376      0.00000
     14       2.7180      0.00000
     15       5.3954      0.00000
     16       5.5192      0.00000
     17       6.4513      0.00000
     18       6.9754      0.00000

 soft charge-density along one line, spin component           1
         0         1         2         3         4         5         6         7         8         9
 total charge-density along one line

------------------------ aborting loop because EDIFF is reached ----------------------------------------

  FORCE on cell =-STRESS in cart. coord.  units (eV):
  Direction    XX          YY          ZZ          XY          YZ          ZX
  Alpha Z    22.94335    22.94335    22.94335
  Ewald    2703.62889  2703.71739 -3249.07573    -0.00000     0.00000     0.00000
  Hartree  2805.80707  2805.83918 -2779.91652     0.00000    -0.00000    -0.00000
  E(xc)     -71.38513   -71.38741   -72.23291     0.00000    -0.00000    -0.00000
  Local   -5748.04122 -5748.16776  5788.32620     0.00000     0.00000    -0.00000
  n-local    69.48113    69.48034    74.89883    -0.01096     0.00000     0.00000
  augment    -2.78705    -2.78618    -3.50638    -0.00000     0.00000     0.00000
  Kinetic   221.27519   221.32334   218.56358     5.31498     0.00000     0.00000
  Fock        0.00000     0.00000     0.00000     0.00000     0.00000     0.00000
  Total       0.92223     0.96224     0.00042     0.00000     0.00000     0.00000
  in kB       7.92483     8.26864     0.00362     0.00000     0.00000     0.00000

 VOLUME and BASIS-vectors are now :
  energy-cutoff  :      800.00
  volume of cell :      186.45
      direct lattice vectors                 reciprocal lattice vectors
     3.282000000  0.000000000  0.000000000     0.304692261 -0.176026587  0.000000000
     1.641000000  2.840480000  0.000000000     0.000000000  0.352053174  0.000000000
     0.000000000  0.000000000 20.000000000     0.000000000  0.000000000  0.050000000

  length of vectors
     3.282000000  3.280427965 20.000000000     0.351884545  0.352053174  0.050000000

 FORCES acting on ions
    electron-ion (+dipol)            ewald-force                    non-local-force                 convergence-correction
   0.990E-08 -.512E-01 -.125E-08   0.215E-11 0.516E-01 0.000E+00   -.176E-16 -.401E-03 0.000E+00   -.894E-14 0.180E-08 -.382E-11
   0.227E-07 0.268E-01 0.498E+03   -.107E-11 -.258E-01 -.500E+03   0.583E-18 -.980E-03 0.260E+01   0.780E-14 0.995E-09 0.218E-07
   0.219E-07 0.268E-01 -.498E+03   -.107E-11 -.258E-01 0.500E+03   -.138E-17 -.980E-03 -.260E+01   0.609E-14 0.995E-09 -.218E-07
   0.545E-07 0.237E-02 -.120E-08   -.199E-15 0.408E-14 0.000E+00   -.184E-16 -.236E-02 0.444E-15   0.494E-14 0.379E-08 -.108E-10

 POSITION                                       TOTAL-FORCE (eV/Angst)
      3.28200      0.00057     -0.00000         0.000000      0.000000      0.000000
      1.64100      0.94715     18.30918        -0.000000     -0.000000      0.000000
      1.64100      0.94715      1.69082        -0.000000     -0.000000     -0.000000
    total drift:                                0.000000      0.000006     -0.000000

  FREE ENERGIE OF THE ION-ELECTRON SYSTEM (eV)
  free  energy   TOTEN  =       -21.63238341 eV

  energy  without entropy=      -21.63238341  energy(sigma->0) =      -21.63238341

 d Force = 0.6104817E-14[-0.156E-16, 0.122E-13]  d Energy =-0.5229595E-11 0.524E-11
 d Force =-0.1517355E-04[-0.152E-04,-0.152E-04]  d Ewald  =-0.1517362E-04 0.668E-10

 Conjugate gradient step on ions:
 trial-energy change:    0.000000  1 .order   -0.000000   -0.000000    0.000000
  (g-gl).g = 0.660E-13      g.g   = 0.125E-13  gl.gl    = 0.708E-11
 g(Force)  = 0.125E-13   g(Stress)= 0.000E+00 ortho     =-0.159E-15
 gamma     =   0.00931
 trial     =   0.97757
 opt step  =   0.97633  (harmonic =   0.97633) maximal distance =0.00000002
 next E    =   -21.632383   (d E  =  -0.00000)

 reached required accuracy - stopping structural energy minimisation