 vasp.5.4.4.18Apr17-6-g9f103f2a35 (build May 31 2018 21:15:54) complex

 executed on          c7_intel_O1 date 2020.08.11  21:53:21

 INCAR:
 POTCAR:   PAW_PBE C 08Apr2002
 POTCAR:   PAW_PBE C 08Apr2002
   VRHFIN =C: s2p2

   TITEL  = PAW_PBE C 08Apr2002
   POMASS =   12.011; ZVAL   =    4.000    mass and valenz
   ENMAX  =  400.000; ENMIN  =  300.000 eV
   QCUT   =   -5.516; QGAM   =   11.032    optimization parameters

   Description
     l     E      TYP  RCUT    TYP  RCUT
     0   .000     23  1.200
     0   .000     23  1.200
     1   .000     23  1.500
     1  2.500     23  1.500
     2   .000      7  1.500

 PAW_PBE C 08Apr2002                    :

 POSCAR: generated by phonopy
  positions in direct lattice
 exchange correlation table for  LEXCH =        8
   RHO(1)=    0.500       N(1)  =     2000
   RHO(2)=  100.500       N(2)  =     4000

 ion  position               nearest neighbor table
   1  0.000  0.000  0.000-  10 1.42  16 1.42  12 1.42
   2  0.333  0.000  0.000-  10 1.42  17 1.42  11 1.42
   3  0.667  0.000  0.000-  18 1.42  12 1.42  11 1.42
   4  0.000  0.333  0.000-  10 1.42  15 1.42  13 1.42
   5  0.333  0.333  0.000-  11 1.42  13 1.42  14 1.42
   6  0.667  0.333  0.000-  12 1.42  15 1.42  14 1.42
   7  0.000  0.667  0.000-  18 1.42  16 1.42  13 1.42
   8  0.333  0.667  0.000-  16 1.42  17 1.42  14 1.42
   9  0.667  0.667  0.000-  18 1.42  17 1.42  15 1.42
  10  0.111  0.111  0.000-   1 1.42   2 1.42   4 1.42
  11  0.444  0.111  0.000-   5 1.42   2 1.42   3 1.42
  12  0.778  0.111  0.000-   6 1.42   3 1.42   1 1.42
  13  0.111  0.444  0.000-   5 1.42   4 1.42   7 1.42
  14  0.444  0.444  0.000-   5 1.42   6 1.42   8 1.42
  15  0.778  0.444  0.000-   4 1.42   6 1.42   9 1.42
  16  0.111  0.778  0.000-   8 1.42   7 1.42   1 1.42
  17  0.444  0.778  0.000-   2 1.42   8 1.42   9 1.42
  18  0.778  0.778  0.000-   7 1.42   3 1.42   9 1.42

  LATTYP: Found a hexagonal cell.
 ALAT       =     7.3785360000
 C/A-ratio  =     2.7105648058

  Lattice vectors:

 A1 = (   0.0000000000,  -7.3785360000,   0.0000000000)
 A2 = (  -6.3900000000,   3.6892680000,   0.0000000000)
 A3 = (   0.0000000000,   0.0000000000, -20.0000000000)

Analysis of symmetry for initial positions (statically):
 Subroutine PRICEL returns:
 Original cell was already a primitive cell.

 Routine SETGRP: Setting up the symmetry group for a
 hexagonal supercell.

 Subroutine GETGRP returns: Found  1 space group operations
 (whereof  1 operations were pure point group operations)
 out of a pool of 24 trial point group operations.

The static configuration has the point symmetry C_1 .

Analysis of symmetry for dynamics (positions and initial velocities):
 Subroutine PRICEL returns:
 Original cell was already a primitive cell.

 Routine SETGRP: Setting up the symmetry group for a
 hexagonal supercell.

 Subroutine GETGRP returns: Found  1 space group operations
 (whereof  1 operations were pure point group operations)
 out of a pool of 24 trial point group operations.

The dynamic configuration has the point symmetry C_1 .

 Subroutine INISYM returns: Found  1 space group operations
 (whereof  1 operations are pure point group operations),
 and found     1 'primitive' translations

 KPOINTS: C-2

Automatic generation of k-mesh.
Space group operators:
 irot       det(A)        alpha          n_x          n_y          n_z        tau_x        tau_y        tau_z
    1     1.000000     0.000000     1.000000     0.000000     0.000000     0.000000     0.000000     0.000000

 Subroutine IBZKPT returns following result:

 Found    221 irreducible k-points:

 Following reciprocal coordinates:
            Coordinates               Weight
  0.000000  0.000000  0.000000      1.000000
  0.047619  0.000000  0.000000      2.000000
  0.095238  0.000000  0.000000      2.000000
  0.142857  0.000000  0.000000      2.000000
  0.190476  0.000000  0.000000      2.000000
  0.238095  0.000000  0.000000      2.000000
  0.285714  0.000000  0.000000      2.000000
  0.333333  0.000000  0.000000      2.000000
  0.380952  0.000000  0.000000      2.000000
  0.428571  0.000000  0.000000      2.000000
  0.476190  0.000000  0.000000      2.000000
  0.000000  0.047619  0.000000      2.000000
  0.047619  0.047619  0.000000      2.000000
  0.095238  0.047619  0.000000      2.000000
  0.142857  0.047619  0.000000      2.000000
  0.190476  0.047619  0.000000      2.000000
  0.238095  0.047619  0.000000      2.000000
  0.285714  0.047619  0.000000      2.000000
  0.333333  0.047619  0.000000      2.000000
  0.380952  0.047619  0.000000      2.000000
  0.428571  0.047619  0.000000      2.000000
  0.476190  0.047619  0.000000      2.000000
 -0.476190  0.047619  0.000000      2.000000
 -0.428571  0.047619  0.000000      2.000000
 -0.380952  0.047619  0.000000      2.000000
 -0.333333  0.047619  0.000000      2.000000
 -0.285714  0.047619  0.000000      2.000000
 -0.238095  0.047619  0.000000      2.000000
 -0.190476  0.047619  0.000000      2.000000
 -0.142857  0.047619  0.000000      2.000000
 -0.095238  0.047619  0.000000      2.000000
 -0.047619  0.047619  0.000000      2.000000
  0.000000  0.095238  0.000000      2.000000
  0.047619  0.095238  0.000000      2.000000
  0.095238  0.095238  0.000000      2.000000
  0.142857  0.095238  0.000000      2.000000
  0.190476  0.095238  0.000000      2.000000
  0.238095  0.095238  0.000000      2.000000
  0.285714  0.095238  0.000000      2.000000
  0.333333  0.095238  0.000000      2.000000
  0.380952  0.095238  0.000000      2.000000
  0.428571  0.095238  0.000000      2.000000
  0.476190  0.095238  0.000000      2.000000
 -0.476190  0.095238  0.000000      2.000000
 -0.428571  0.095238  0.000000      2.000000
 -0.380952  0.095238  0.000000      2.000000
 -0.333333  0.095238  0.000000      2.000000
 -0.285714  0.095238  0.000000      2.000000
 -0.238095  0.095238  0.000000      2.000000
 -0.190476  0.095238  0.000000      2.000000
 -0.142857  0.095238  0.000000      2.000000
 -0.095238  0.095238  0.000000      2.000000
 -0.047619  0.095238  0.000000      2.000000
  0.000000  0.142857  0.000000      2.000000
  0.047619  0.142857  0.000000      2.000000
  0.095238  0.142857  0.000000      2.000000
  0.142857  0.142857  0.000000      2.000000
  0.190476  0.142857  0.000000      2.000000
  0.238095  0.142857  0.000000      2.000000
  0.285714  0.142857  0.000000      2.000000
[...]
  0.285714  0.476190  0.000000      2.000000
  0.333333  0.476190  0.000000      2.000000
  0.380952  0.476190  0.000000      2.000000
  0.428571  0.476190  0.000000      2.000000
  0.476190  0.476190  0.000000      2.000000
 -0.476190  0.476190  0.000000      2.000000
 -0.428571  0.476190  0.000000      2.000000
 -0.380952  0.476190  0.000000      2.000000
 -0.333333  0.476190  0.000000      2.000000
 -0.285714  0.476190  0.000000      2.000000
 -0.238095  0.476190  0.000000      2.000000
 -0.190476  0.476190  0.000000      2.000000
 -0.142857  0.476190  0.000000      2.000000
 -0.095238  0.476190  0.000000      2.000000
 -0.047619  0.476190  0.000000      2.000000

 Following cartesian coordinates:
            Coordinates               Weight
  0.000000  0.000000  0.000000      1.000000
  0.003726 -0.006454  0.000000      2.000000
  0.007452 -0.012907  0.000000      2.000000
  0.011178 -0.019361  0.000000      2.000000
  0.014904 -0.025815  0.000000      2.000000
  0.018630 -0.032269  0.000000      2.000000
  0.022356 -0.038722  0.000000      2.000000
  0.026082 -0.045176  0.000000      2.000000
  0.029808 -0.051630  0.000000      2.000000
  0.033535 -0.058084  0.000000      2.000000
  0.037261 -0.064537  0.000000      2.000000
  0.003726  0.006454  0.000000      2.000000
  0.007452 -0.000000  0.000000      2.000000
  0.011178 -0.006454  0.000000      2.000000
  0.014904 -0.012907  0.000000      2.000000
  0.018630 -0.019361  0.000000      2.000000
  0.022356 -0.025815  0.000000      2.000000
  0.026082 -0.032269  0.000000      2.000000
  0.029808 -0.038722  0.000000      2.000000
  0.033535 -0.045176  0.000000      2.000000
  0.037261 -0.051630  0.000000      2.000000
  0.040987 -0.058084  0.000000      2.000000
 -0.033535  0.070991  0.000000      2.000000
 -0.029808  0.064537  0.000000      2.000000
 -0.026082  0.058084  0.000000      2.000000
 -0.022356  0.051630  0.000000      2.000000
 -0.018630  0.045176  0.000000      2.000000
 -0.014904  0.038722  0.000000      2.000000
 -0.011178  0.032269  0.000000      2.000000
 -0.007452  0.025815  0.000000      2.000000
 -0.003726  0.019361  0.000000      2.000000
  0.000000  0.012907  0.000000      2.000000
  0.007452  0.012907  0.000000      2.000000
  0.011178  0.006454  0.000000      2.000000
  0.014904 -0.000000  0.000000      2.000000
  0.018630 -0.006454  0.000000      2.000000
  0.022356 -0.012907  0.000000      2.000000
  0.026082 -0.019361  0.000000      2.000000
  0.029808 -0.025815  0.000000      2.000000
  0.033535 -0.032269  0.000000      2.000000
  0.037261 -0.038722  0.000000      2.000000
  0.040987 -0.045176  0.000000      2.000000
  0.044713 -0.051630  0.000000      2.000000
 -0.029808  0.077445  0.000000      2.000000
 -0.026082  0.070991  0.000000      2.000000
 -0.022356  0.064537  0.000000      2.000000
 -0.018630  0.058084  0.000000      2.000000
 -0.014904  0.051630  0.000000      2.000000
 -0.011178  0.045176  0.000000      2.000000
 -0.007452  0.038722  0.000000      2.000000
 -0.003726  0.032269  0.000000      2.000000
  0.000000  0.025815  0.000000      2.000000
  0.003726  0.019361  0.000000      2.000000
  0.011178  0.019361  0.000000      2.000000
  0.014904  0.012907  0.000000      2.000000
  0.018630  0.006454  0.000000      2.000000
  0.022356  0.000000  0.000000      2.000000
  0.026082 -0.006454  0.000000      2.000000
  0.029808 -0.012907  0.000000      2.000000
  0.033535 -0.019361  0.000000      2.000000
[...]
  0.059617  0.025815  0.000000      2.000000
  0.063343  0.019361  0.000000      2.000000
  0.067069  0.012907  0.000000      2.000000
  0.070795  0.006454  0.000000      2.000000
  0.074521  0.000000  0.000000      2.000000
  0.000000  0.129075  0.000000      2.000000
  0.003726  0.122621  0.000000      2.000000
  0.007452  0.116167  0.000000      2.000000
  0.011178  0.109713  0.000000      2.000000
  0.014904  0.103260  0.000000      2.000000
  0.018630  0.096806  0.000000      2.000000
  0.022356  0.090352  0.000000      2.000000
  0.026082  0.083898  0.000000      2.000000
  0.029808  0.077445  0.000000      2.000000
  0.033535  0.070991  0.000000      2.000000

 SYSTEM =  C-2
 POSCAR =  generated by phonopy

 Startparameter for this run:
   NWRITE =      2    write-flag & timer
   PREC   = accura    normal or accurate (medium, high low for compatibility)
   ISTART =      0    job   : 0-new  1-cont  2-samecut
   ICHARG =      2    charge: 1-file 2-atom 10-const
   ISPIN  =      1    spin polarized calculation?
   LNONCOLLINEAR =      F non collinear calculations
   LSORBIT =      F    spin-orbit coupling
   INIWAV =      1    electr: 0-lowe 1-rand  2-diag
   LASPH  =      F    aspherical Exc in radial PAW
   METAGGA=      F    non-selfconsistent MetaGGA calc.

 Electronic Relaxation 1
[...]
 k-point ** :   0.1905 0.3333 0.0000  plane waves:   48436
 k-point ** :   0.2381 0.3333 0.0000  plane waves:   48423
 k-point ** :   0.2857 0.3333 0.0000  plane waves:   48437
 k-point ** :   0.3333 0.3333 0.0000  plane waves:   48426
 k-point ** :   0.3810 0.3333 0.0000  plane waves:   48444
 k-point ** :   0.4286 0.3333 0.0000  plane waves:   48438
 k-point ** :   0.4762 0.3333 0.0000  plane waves:   48473
 k-point ** :  -0.4762 0.3333 0.0000  plane waves:   48472
 k-point ** :  -0.4286 0.3333 0.0000  plane waves:   48508
 k-point ** :  -0.3810 0.3333 0.0000  plane waves:   48500
 k-point ** :  -0.3333 0.3333 0.0000  plane waves:   48483
 k-point ** :  -0.2857 0.3333 0.0000  plane waves:   48500
 k-point ** :  -0.2381 0.3333 0.0000  plane waves:   48508
 k-point ** :  -0.1905 0.3333 0.0000  plane waves:   48472
 k-point ** :  -0.1429 0.3333 0.0000  plane waves:   48473
 k-point ** :  -0.0952 0.3333 0.0000  plane waves:   48438
 k-point ** :  -0.0476 0.3333 0.0000  plane waves:   48444
 k-point ** :   0.0000 0.3810 0.0000  plane waves:   48444
[...]
 k-point ** :   0.2857 0.4762 0.0000  plane waves:   48482
 k-point ** :   0.3333 0.4762 0.0000  plane waves:   48473
 k-point ** :   0.3810 0.4762 0.0000  plane waves:   48478
 k-point ** :   0.4286 0.4762 0.0000  plane waves:   48459
 k-point ** :   0.4762 0.4762 0.0000  plane waves:   48422
 k-point ** :  -0.4762 0.4762 0.0000  plane waves:   48451
 k-point ** :  -0.4286 0.4762 0.0000  plane waves:   48484
 k-point ** :  -0.3810 0.4762 0.0000  plane waves:   48488
 k-point ** :  -0.3333 0.4762 0.0000  plane waves:   48472
 k-point ** :  -0.2857 0.4762 0.0000  plane waves:   48509
 k-point ** :  -0.2381 0.4762 0.0000  plane waves:   48509
 k-point ** :  -0.1905 0.4762 0.0000  plane waves:   48472
 k-point ** :  -0.1429 0.4762 0.0000  plane waves:   48488
 k-point ** :  -0.0952 0.4762 0.0000  plane waves:   48484
 k-point ** :  -0.0476 0.4762 0.0000  plane waves:   48451

 maximum and minimum number of plane-waves per node :      8115     8036

 maximum number of plane-waves:     48509
 maximum index in each direction:
   IXMAX=   17   IYMAX=   17   IZMAX=   46
   IXMIN=  -17   IYMIN=  -17   IZMIN=  -46

 parallel 3D FFT for wavefunctions:
    minimum data exchange during FFTs selected (reduces bandwidth)
 parallel 3D FFT for charge:
    minimum data exchange during FFTs selected (reduces bandwidth)

 Broyden mixing: mesh for mixing (old mesh)
   NGX = 35   NGY = 35   NGZ = 93
  (NGX  =140   NGY  =140   NGZ  =384)
  gives a total of 113925 points

 initial charge density was supplied:
 charge density of overlapping atoms calculated
 number of electron      72.0000000 magnetization
 keeping initial charge density in first step

 Maximum index for augmentation-charges         2926 (set IRDMAX)

 First call to EWALD:  gamma=   0.181
 Maximum number of real-space cells 4x 4x 2
 Maximum number of reciprocal cells 2x 2x 5

--------------------------------------- Iteration      1(   1)  ---------------------------------------

 eigenvalue-minimisations  : 21300
 total energy-change (2. order) : 0.8038851E+03  (-0.3036258E+04)
 number of electron      72.0000000 magnetization
 augmentation part       72.0000000 magnetization

 Free energy of the ion-electron system (eV)
  alpha Z        PSCENC =        27.99599133
  Ewald energy   TEWEN  =     11727.27928553
  -Hartree energ DENC   =    -13636.90389693
  -exchange      EXHF   =         0.00000000
  -V(xc)+E(xc)   XCENC  =       248.31592008
  PAW double counting   =       680.96597573     -701.67460981
  entropy T*S    EENTRO =        -0.00025433
  eigenvalues    EBANDS =      -190.87294078
  atomic energy  EATOM  =      2648.77962213
  Solvation  Ediel_sol  =         0.00000000
  free energy    TOTEN  =       803.88509295 eV

  energy without entropy =      803.88534728  energy(sigma->0) =      803.88522011

[...]

 eigenvalue-minimisations  : 36336
 total energy-change (2. order) :-0.8283556E+03  (-0.7882418E+03)
 number of electron      72.0000000 magnetization
 augmentation part       72.0000000 magnetization

[...]

 Broyden mixing:
  rms(total) = 0.16747E+01    rms(broyden)= 0.16747E+01
  rms(prec ) = 0.18256E+01
  weight for this iteration     100.00

[...]

 eigenvalues of (default mixing * dielectric matrix)
  average eigenvalue GAMMA=   2.0468
  2.0468

[...]

 eigenvalue-minimisations  : 23544
 total energy-change (2. order) : 0.2418027E-02  (-0.3917334E-03)
 number of electron      72.0000000 magnetization
 augmentation part        1.7332349 magnetization

[...]

 eigenvalue-minimisations  : 15612
 total energy-change (2. order) :-0.1465646E-06  (-0.3200005E-10)
 number of electron      72.0000000 magnetization
 augmentation part        1.7321170 magnetization

 Broyden mixing:
  rms(total) = 0.22484E-05    rms(broyden)= 0.22416E-05
  rms(prec ) = 0.24582E-05
  weight for this iteration     100.00

[...]

 eigenvalue-minimisations  : 15144
 total energy-change (2. order) :-0.2586285E-07  ( 0.1446786E-11)
 number of electron      72.0000000 magnetization
 augmentation part        1.7321170 magnetization

 Broyden mixing:
  rms(total) = 0.37870E-06    rms(broyden)= 0.33582E-06
  rms(prec ) = 0.37190E-06
  weight for this iteration     100.00
  WARNING: grid for Broyden might be to small

 eigenvalues of (default mixing * dielectric matrix)
  average eigenvalue GAMMA=   3.5904
 27.3400  8.5227  5.1975  4.0424  3.3345  2.8884  2.5570  2.3371  2.0971  2.0176
  1.7050  1.2251  1.2251  1.1568  1.1568  0.9820  0.9820  0.9805  1.0304  1.0304

[...]

--------------------------------------- Iteration      1(  26)  ---------------------------------------

 eigenvalue-minimisations  : 15108
 total energy-change (2. order) :-0.3441528E-08  ( 0.1896817E-10)
 number of electron      72.0000000 magnetization
 augmentation part        1.7321170 magnetization

 Free energy of the ion-electron system (eV)
  alpha Z        PSCENC =        27.99599133
  Ewald energy   TEWEN  =     11727.27928553
  -Hartree energ DENC   =    -13950.35524915
  -exchange      EXHF   =         0.00000000
  -V(xc)+E(xc)   XCENC  =       259.36063301
  PAW double counting   =      1259.28727353    -1282.51180553
  entropy T*S    EENTRO =        -0.00004498
  eigenvalues    EBANDS =      -855.96599315
  atomic energy  EATOM  =      2648.77962213
  Solvation  Ediel_sol  =         0.00000000
  free energy    TOTEN  =      -166.13028728 eV

  energy without entropy =     -166.13024230  energy(sigma->0) =     -166.13026479

 average (electrostatic) potential at core
  the test charge radii are     0.6991
  (the norm of the test charge is              1.0000)
       1 -58.1431       2 -58.1428       3 -58.1433       4 -58.1439       5 -58.1430
       6 -58.1422       7 -58.1441       8 -58.1420       9 -58.1431      10 -58.1426
      11 -58.1431      12 -58.1436      13 -58.1441      14 -58.1421      15 -58.1431
      16 -58.1431      17 -58.1431      18 -58.1431

 E-fermi :  -2.7218     XC(G=0):  -2.1521     alpha+bet : -1.9163

 k-point     1 :       0.0000    0.0000    0.0000
  band No.  band energies     occupation
      1     -22.2970      2.00000
      2     -19.7080      2.00000
      3     -19.7015      2.00000
      4     -19.7007      2.00000
      5     -19.7007      2.00000
      6     -19.6999      2.00000
      7     -19.6934      2.00000
      8     -15.3409      2.00000
      9     -15.3358      2.00000
     10     -15.3356      2.00000
     11     -15.3305      2.00000
     12     -13.3273      2.00000
     13     -13.3256      2.00000
     14     -12.3778      2.00000
     15     -12.3728      2.00000
     16     -12.3700      2.00000
     17     -12.3700      2.00000
     18     -12.3671      2.00000
     19     -12.3619      2.00000
     20     -10.3901      2.00000
     21      -8.5228      2.00000
     22      -8.5146      2.00000
     23      -8.5134      2.00000
     24      -8.5133      2.00000
     25      -8.5121      2.00000
     26      -8.5038      2.00000
     27      -7.3834      2.00000
     28      -7.3776      2.00000
     29      -7.3772      2.00000
     30      -7.3772      2.00000
     31      -7.3769      2.00000
     32      -7.3709      2.00000
     33      -5.7557      2.00000
     34      -5.7441      2.00000
     35      -2.7271      1.54592
     36      -2.7218      0.99843
     37      -2.7218      0.99620
     38      -2.7166      0.45945
     39       0.5264      0.00000
     40       1.3277      0.00000
     41       1.6974      0.00000
     42       2.2067      0.00000
     43       2.2148      0.00000
     44       2.2156      0.00000
     45       2.2156      0.00000
     46       2.2162      0.00000
     47       2.2236      0.00000
     48       2.6044      0.00000

[...]

 k-point   221 :      -0.0476    0.4762    0.0000
  band No.  band energies     occupation
      1     -21.6353      2.00000
      2     -21.6352      2.00000
      3     -20.5210      2.00000
      4     -20.1536      2.00000
      5     -18.0112      2.00000
      6     -18.0111      2.00000
      7     -17.6719      2.00000
      8     -17.6718      2.00000
      9     -17.0171      2.00000
     10     -15.9970      2.00000
     11     -14.4473      2.00000
     12     -14.4435      2.00000
     13     -13.8553      2.00000
     14     -13.8514      2.00000
     15     -10.8742      2.00000
     16     -10.8694      2.00000
     17     -10.7791      2.00000
     18     -10.7030      2.00000
     19     -10.6986      2.00000
     20     -10.2013      2.00000
     21      -9.6021      2.00000
     22      -9.6020      2.00000
     23      -9.4030      2.00000
     24      -9.1726      2.00000
     25      -8.9011      2.00000
     26      -8.2956      2.00000
     27      -8.0540      2.00000
     28      -8.0530      2.00000
     29      -7.8719      2.00000
     30      -6.9065      2.00000
     31      -6.9054      2.00000
     32      -5.5456      2.00000
     33      -5.5430      2.00000
     34      -5.2511      2.00000
     35      -5.2479      2.00000
     36      -5.0914      2.00000
     37      -1.0403      0.00000
     38      -0.4045      0.00000
     39      -0.3984      0.00000
     40       0.0276      0.00000
     41       0.0330      0.00000
     42       1.4278      0.00000
     43       1.4279      0.00000
     44       2.2395      0.00000
     45       2.2395      0.00000
     46       2.6218      0.00000
     47       2.6218      0.00000
     48       2.9615      0.00000

 soft charge-density along one line, spin component           1
         0         1         2         3         4         5         6         7         8         9
 total charge-density along one line

------------------------ aborting loop because EDIFF is reached ----------------------------------------

  FORCE on cell =-STRESS in cart. coord.  units (eV):
  Direction    XX          YY          ZZ          XY          YZ          ZX
  Alpha Z    27.99599    27.99599    27.99599
  Ewald   14154.16719 14152.84033-16579.73351     0.38187     0.00421    -0.00737
  Hartree 13849.08039 13848.89725-13747.62238     0.05293     0.00099    -0.00172
  E(xc)    -263.02390  -263.02899  -273.57663     0.00146     0.00001    -0.00001
  Local  -28778.08441-28776.82855 29398.10024    -0.36192    -0.00436     0.00760
  n-local   -63.58891   -63.59850   -57.82454     0.00280    -0.00009     0.00015
  augment    -7.02812    -7.02600    -6.42355    -0.00062    -0.00001     0.00001
  Kinetic  1084.25728  1084.47510  1238.87640    -0.06277     0.00024    -0.00041
  Fock        0.00000     0.00000     0.00000     0.00000     0.00000     0.00000
  Total       3.77551     3.72663    -0.20797     0.01376     0.00100    -0.00175
  in kB       6.41483     6.33179    -0.35335     0.02338     0.00170    -0.00297

 VOLUME and BASIS-vectors are now :
  energy-cutoff  :      800.00
  volume of cell :      942.98
      direct lattice vectors                 reciprocal lattice vectors
     6.390000000 -3.689268000  0.000000000     0.078247261 -0.135528240  0.000000000
     6.390000000  3.689268000  0.000000000     0.078247261  0.135528240  0.000000000
     0.000000000  0.000000000 20.000000000     0.000000000  0.000000000  0.050000000

  length of vectors
     7.378536330  7.378536330 20.000000000     0.156494530  0.156494530  0.050000000

 FORCES acting on ions
    electron-ion (+dipol)            ewald-force                    non-local-force                 convergence-correction
   0.686E+00 -.393E+00 -.437E+01   -.786E+00 0.449E+00 0.442E+01   -.867E-01 0.499E-01 -.181E+00   -.142E-05 0.813E-06 0.542E-06
   -.101E+00 0.569E-01 0.194E+00   0.107E+00 -.619E-01 -.187E+00   0.767E-02 -.675E-02 -.115E-01   0.687E-06 -.243E-06 0.169E-06
   -.997E-01 0.590E-01 0.193E+00   0.107E+00 -.607E-01 -.186E+00   0.945E-02 -.322E-02 -.115E-01   0.219E-06 -.108E-05 0.343E-06
   -.292E-01 -.489E-01 0.194E+00   0.340E-01 0.639E-01 -.187E+00   0.587E-03 -.474E-03 -.115E-01   0.611E-06 0.138E-06 0.111E-06
   -.131E-01 0.718E-02 0.100E+00   0.205E-01 -.114E-01 -.957E-01   -.213E-03 0.156E-03 -.266E-02   -.809E-06 0.605E-06 -.401E-06
   0.274E-01 0.492E-01 0.193E+00   -.381E-01 -.606E-01 -.187E+00   0.734E-03 -.102E-03 -.115E-01   0.356E-06 -.654E-06 0.243E-06
   -.429E-01 -.576E-01 0.193E+00   0.345E-01 0.627E-01 -.187E+00   0.967E-02 0.248E-02 -.115E-01   0.427E-07 0.470E-06 0.101E-06
   0.294E-01 0.672E-01 0.194E+00   -.383E-01 -.627E-01 -.187E+00   0.270E-02 -.983E-02 -.115E-01   0.349E-07 -.295E-07 0.715E-07
   -.126E-01 0.795E-02 0.971E-01   0.186E-01 -.115E-01 -.957E-01   0.804E-03 -.535E-03 0.678E-03   0.367E-06 0.414E-07 0.433E-06
   -.422E+00 -.138E+00 0.764E+00   0.486E+00 0.134E+00 -.793E+00   0.111E-01 -.149E-01 0.865E-01   0.556E-06 0.673E-06 0.396E-06
   -.537E-01 0.318E-01 0.103E+00   0.512E-01 -.305E-01 -.107E+00   0.255E-02 -.148E-02 -.521E-02   0.412E-07 -.667E-06 -.133E-06
   -.983E-01 0.444E+00 0.756E+00   0.134E+00 -.497E+00 -.784E+00   0.177E-01 -.106E-02 0.859E-01   -.606E-06 -.357E-06 0.629E-06
   -.248E-01 -.205E-01 0.103E+00   0.223E-01 0.223E-01 -.107E+00   -.717E-04 0.314E-02 -.522E-02   -.277E-07 0.387E-06 -.229E-06
   0.342E-02 0.306E-01 0.103E+00   -.603E-02 -.292E-01 -.107E+00   -.262E-02 -.144E-02 -.519E-02   0.458E-06 -.713E-07 -.272E-06
   0.204E-01 -.131E-01 0.140E+00   -.162E-01 0.109E-01 -.139E+00   0.284E-02 -.153E-02 0.287E-02   -.349E-06 -.301E-07 0.309E-06
   0.235E+00 -.143E+00 0.760E+00   -.227E+00 0.140E+00 -.788E+00   0.256E-01 -.152E-01 0.862E-01   -.139E-05 0.323E-06 0.314E-06
   -.275E-01 0.727E-01 0.140E+00   0.270E-01 -.670E-01 -.140E+00   0.411E-03 0.253E-02 0.285E-02   0.117E-06 -.563E-06 0.268E-06
   -.752E-01 -.117E-01 0.140E+00   0.698E-01 0.936E-02 -.139E+00   -.217E-02 -.161E-02 0.289E-02   0.105E-05 0.267E-06 0.287E-06
   -.155E-04 -.144E-04 0.163E-04   -.466E-14 -.122E-13 -.472E-15   0.170E-04 0.138E-04 -.177E-04   -.595E-07 0.209E-07 0.318E-05

 POSITION                                       TOTAL-FORCE (eV/Angst)
      0.00300     -0.00173      0.00938        -0.186476      0.106541     -0.133385
      2.13000     -1.22975      0.00000         0.012806     -0.011844     -0.004808
      4.26000     -2.45951      0.00000         0.016362     -0.004863     -0.004639
      2.13000      1.22975      0.00000         0.005326      0.014503     -0.004741
      4.26000      0.00000      0.00000         0.007193     -0.004107      0.002029
      6.39000     -1.22976      0.00000        -0.010034     -0.011548     -0.004706
      4.26000      2.45951      0.00000         0.001290      0.007562     -0.004655
      6.39000      1.22976      0.00000        -0.006204     -0.005304     -0.004791
      8.52000     -0.00000      0.00000         0.006875     -0.004106      0.002029
      1.42000      0.00000      0.00000         0.074830     -0.018804      0.057579
      3.55000     -1.22975      0.00000         0.000089     -0.000168     -0.008671
      5.68000     -2.45951      0.00000         0.053553     -0.054921      0.058399
      3.55000      1.22975      0.00000        -0.002637      0.004900     -0.008651
      5.67999      0.00000      0.00000        -0.005233      0.000005     -0.008692
      7.81000     -1.22976      0.00000         0.006969     -0.003759      0.003236
      5.68000      2.45951      0.00000         0.032965     -0.018352      0.057995
      7.81000      1.22976      0.00000        -0.000152      0.008207      0.003230
      9.94000     -0.00000      0.00000        -0.007522     -0.003943      0.003242
    total drift:                                0.000001     -0.000001      0.000002

  FREE ENERGIE OF THE ION-ELECTRON SYSTEM (eV)
  free  energy   TOTEN  =      -166.13028728 eV

  energy  without entropy=     -166.13024230  energy(sigma->0) =     -166.13026479