 vasp.5.4.4.18Apr17-6-g9f103f2a35 (build May 31 2018 21:15:54) complex

 executed on          c7_intel_O1 date 2020.08.13  02:02:51

 INCAR:
 POTCAR:   PAW_PBE W 08Apr2002
 POTCAR:   PAW_PBE Se 06Sep2000
 POTCAR:   PAW_PBE W 08Apr2002
   VRHFIN =W : 6s5d

   TITEL  = PAW_PBE W 08Apr2002
   POMASS =  183.850; ZVAL   =    6.000    mass and valenz
   ENMAX  =  223.057; ENMIN  =  167.293 eV
   QCUT   =   -4.049; QGAM   =    8.098    optimization parameters

   Description
     l     E      TYP  RCUT    TYP  RCUT
     2   .000     23  2.500
     2   .000     23  2.500
     0   .000     23  2.500
     0   .000     23  2.500
     1   .200     23  2.750
     1  2.000     23  2.750
     3   .000      7   .000

 POTCAR:   PAW_PBE Se 06Sep2000
   VRHFIN =Se: s2p4

   TITEL  = PAW_PBE Se 06Sep2000
   POMASS =   78.960; ZVAL   =    6.000    mass and valenz
   ENMAX  =  211.534; ENMIN  =  158.651 eV
   QCUT   =   -3.943; QGAM   =    7.886    optimization parameters

   Description
     l     E      TYP  RCUT    TYP  RCUT
     0   .000     23  2.100
     0   .000     23  2.100
     1   .000     23  2.100
     1   .000     23  2.100
     2   .000     23  2.100
     3  -.100      7  2.100

 WARNING: PSMAXN for non-local potential too small
          PSMAXN should be >   14.4904333269122       NTYP=           1
 PAW_PBE W 08Apr2002                    :
 PAW_PBE Se 06Sep2000                   :

 POSCAR: generated by phonopy
  positions in direct lattice
 exchange correlation table for  LEXCH =        8
   RHO(1)=    0.500       N(1)  =     2000
   RHO(2)=  100.500       N(2)  =     4000

 ion  position               nearest neighbor table
   1  0.333  0.000  0.000-  17 2.54  26 2.54  20 2.54  11 2.54  19 2.54  10 2.55   4 3.28   6 3.28
                             8 3.28   7 3.28   2 3.28   3 3.28
   2  0.667  0.000  0.000-  18 2.54  27 2.54  20 2.54  11 2.54  21 2.54  12 2.54   4 3.28   5 3.28
                             8 3.28   9 3.28   1 3.28   3 3.28
   3  1.000  0.000  0.000-  16 2.54  25 2.54  19 2.54  21 2.54  12 2.54  10 2.55   6 3.28   7 3.28
                             5 3.28   9 3.28   1 3.28   2 3.28
   4  0.333  0.333  0.000-  11 2.54  20 2.54  14 2.54  13 2.54  22 2.54  23 2.54   1 3.28   2 3.28
                             7 3.28   9 3.28   5 3.28   6 3.28
   5  0.667  0.333  0.000-  12 2.54  21 2.54  14 2.54  23 2.54  15 2.54  24 2.54   2 3.28   7 3.28
                             8 3.28   3 3.28   4 3.28   6 3.28
   6  1.000  0.333  0.000-  19 2.54  13 2.54  22 2.54  15 2.54  24 2.54  10 2.55   3 3.28   1 3.28
                             9 3.28   8 3.28   4 3.28   5 3.28
   7  0.333  0.667  0.000-  14 2.54  23 2.54  17 2.54  26 2.54  25 2.54  16 2.54   5 3.28   4 3.28
                             3 3.28   1 3.28   8 3.28   9 3.28
   8  0.667  0.667  0.000-  15 2.54  24 2.54  17 2.54  26 2.54  18 2.54  27 2.54   5 3.28   1 3.28
                             6 3.28   2 3.28   7 3.28   9 3.28
   9  1.000  0.667  0.000-  13 2.54  22 2.54  16 2.54  25 2.54  18 2.54  27 2.54   4 3.28   6 3.28
                             2 3.28   3 3.28   7 3.28   8 3.28
  10  0.111  0.111  0.915-   6 2.55   3 2.55   1 2.55
  11  0.444  0.111  0.915-   4 2.54   2 2.54   1 2.54
  12  0.778  0.111  0.915-   5 2.54   3 2.54   2 2.54
  13  0.111  0.444  0.915-   9 2.54   6 2.54   4 2.54
  14  0.444  0.444  0.915-   7 2.54   5 2.54   4 2.54
  15  0.778  0.444  0.915-   8 2.54   6 2.54   5 2.54
  16  0.111  0.778  0.915-   3 2.54   9 2.54   7 2.54
  17  0.444  0.778  0.915-   1 2.54   8 2.54   7 2.54
  18  0.778  0.778  0.915-   2 2.54   9 2.54   8 2.54
  19  0.111  0.111  0.085-   6 2.54   3 2.54   1 2.54
  20  0.444  0.111  0.085-   4 2.54   2 2.54   1 2.54
  21  0.778  0.111  0.085-   5 2.54   3 2.54   2 2.54
  22  0.111  0.444  0.085-   9 2.54   6 2.54   4 2.54
  23  0.444  0.444  0.085-   7 2.54   5 2.54   4 2.54
  24  0.778  0.444  0.085-   8 2.54   6 2.54   5 2.54
  25  0.111  0.778  0.085-   3 2.54   9 2.54   7 2.54
  26  0.444  0.778  0.085-   1 2.54   8 2.54   7 2.54
  27  0.778  0.778  0.085-   2 2.54   9 2.54   8 2.54

  LATTYP: Found a base centered orthorhombic cell.
 ALAT       =     9.8460000000
 B/A-ratio  =     1.7309445460
 C/A-ratio  =     2.0312817388

  Lattice vectors:

 A1 = (  -4.9230000000,  -8.5214400000,   0.0000000000)
 A2 = (  -4.9230000000,   8.5214400000,   0.0000000000)
 A3 = (   0.0000000000,   0.0000000000, -20.0000000000)

Analysis of symmetry for initial positions (statically):
 Subroutine PRICEL returns:
 Original cell was already a primitive cell.

 Routine SETGRP: Setting up the symmetry group for a
 base centered orthorhombic supercell.

 Subroutine GETGRP returns: Found  2 space group operations
 (whereof  1 operations were pure point group operations)
 out of a pool of  8 trial point group operations.

The static configuration has the point symmetry C_1 .
 The point group associated with its full space group is C_1h.

Analysis of symmetry for dynamics (positions and initial velocities):
 Subroutine PRICEL returns:
 Original cell was already a primitive cell.

 Routine SETGRP: Setting up the symmetry group for a
 base centered orthorhombic supercell.

 Subroutine GETGRP returns: Found  2 space group operations
 (whereof  1 operations were pure point group operations)
 out of a pool of  8 trial point group operations.

The dynamic configuration has the point symmetry C_1 .
 The point group associated with its full space group is C_1h.

 Subroutine INISYM returns: Found  2 space group operations
 (whereof  1 operations are pure point group operations),
 and found     1 'primitive' translations

 KPOINTS: W-1, Se-2

Automatic generation of k-mesh.
Space group operators:
 irot       det(A)        alpha          n_x          n_y          n_z        tau_x        tau_y        tau_z
    1     1.000000     0.000000     1.000000     0.000000     0.000000     0.000000     0.000000     0.000000
    2    -1.000000   179.999999     1.000000     0.000000     0.000000    -0.666667    -0.000000     0.000000

 Subroutine IBZKPT returns following result:

 Found    121 irreducible k-points:

 Following reciprocal coordinates:
            Coordinates               Weight
  0.000000  0.000000  0.000000      1.000000
  0.047619  0.000000  0.000000      4.000000
  0.095238  0.000000  0.000000      4.000000
  0.142857  0.000000  0.000000      4.000000
  0.190476  0.000000  0.000000      4.000000
  0.238095  0.000000  0.000000      4.000000
  0.285714  0.000000  0.000000      4.000000
  0.333333  0.000000  0.000000      4.000000
  0.380952  0.000000  0.000000      4.000000
  0.428571  0.000000  0.000000      4.000000
  0.476190  0.000000  0.000000      4.000000
  0.000000  0.047619  0.000000      2.000000
  0.095238  0.047619  0.000000      2.000000
  0.142857  0.047619  0.000000      4.000000
  0.190476  0.047619  0.000000      4.000000
  0.238095  0.047619  0.000000      4.000000
  0.285714  0.047619  0.000000      4.000000
  0.333333  0.047619  0.000000      4.000000
  0.380952  0.047619  0.000000      4.000000
  0.428571  0.047619  0.000000      4.000000
  0.476190  0.047619  0.000000      4.000000
 -0.476190  0.047619  0.000000      4.000000
 -0.428571  0.047619  0.000000      4.000000
 -0.380952  0.047619  0.000000      4.000000
 -0.333333  0.047619  0.000000      4.000000
 -0.285714  0.047619  0.000000      4.000000
 -0.238095  0.047619  0.000000      4.000000
 -0.190476  0.047619  0.000000      4.000000
 -0.142857  0.047619  0.000000      4.000000
 -0.095238  0.047619  0.000000      4.000000
 -0.047619  0.047619  0.000000      4.000000
  0.000000  0.095238  0.000000      2.000000
  0.190476  0.095238  0.000000      2.000000
  0.238095  0.095238  0.000000      4.000000
  0.285714  0.095238  0.000000      4.000000
  0.333333  0.095238  0.000000      4.000000
  0.380952  0.095238  0.000000      4.000000
  0.428571  0.095238  0.000000      4.000000
  0.476190  0.095238  0.000000      4.000000
 -0.476190  0.095238  0.000000      4.000000
 -0.428571  0.095238  0.000000      4.000000
 -0.380952  0.095238  0.000000      4.000000
 -0.333333  0.095238  0.000000      4.000000
 -0.285714  0.095238  0.000000      4.000000
 -0.238095  0.095238  0.000000      4.000000
 -0.190476  0.095238  0.000000      4.000000
 -0.142857  0.095238  0.000000      4.000000
 -0.095238  0.095238  0.000000      4.000000
 -0.047619  0.095238  0.000000      4.000000
  0.000000  0.142857  0.000000      2.000000
  0.285714  0.142857  0.000000      2.000000
  0.333333  0.142857  0.000000      4.000000
  0.380952  0.142857  0.000000      4.000000
  0.428571  0.142857  0.000000      4.000000
  0.476190  0.142857  0.000000      4.000000
 -0.476190  0.142857  0.000000      4.000000
 -0.428571  0.142857  0.000000      4.000000
 -0.380952  0.142857  0.000000      4.000000
 -0.333333  0.142857  0.000000      4.000000
 -0.285714  0.142857  0.000000      4.000000
[...]
 -0.142857  0.333333  0.000000      4.000000
 -0.095238  0.333333  0.000000      4.000000
 -0.047619  0.333333  0.000000      4.000000
  0.000000  0.380952  0.000000      2.000000
 -0.238095  0.380952  0.000000      2.000000
 -0.190476  0.380952  0.000000      4.000000
 -0.142857  0.380952  0.000000      4.000000
 -0.095238  0.380952  0.000000      4.000000
 -0.047619  0.380952  0.000000      4.000000
  0.000000  0.428571  0.000000      2.000000
 -0.142857  0.428571  0.000000      2.000000
 -0.095238  0.428571  0.000000      4.000000
 -0.047619  0.428571  0.000000      4.000000
  0.000000  0.476190  0.000000      2.000000
 -0.047619  0.476190  0.000000      2.000000

 Following cartesian coordinates:
            Coordinates               Weight
  0.000000  0.000000  0.000000      1.000000
  0.004836 -0.002794  0.000000      4.000000
  0.009673 -0.005588  0.000000      4.000000
  0.014509 -0.008382  0.000000      4.000000
  0.019346 -0.011176  0.000000      4.000000
  0.024182 -0.013970  0.000000      4.000000
  0.029018 -0.016764  0.000000      4.000000
  0.033855 -0.019559  0.000000      4.000000
  0.038691 -0.022353  0.000000      4.000000
  0.043527 -0.025147  0.000000      4.000000
  0.048364 -0.027941  0.000000      4.000000
  0.000000  0.005588  0.000000      2.000000
  0.009673  0.000000  0.000000      2.000000
  0.014509 -0.002794  0.000000      4.000000
  0.019346 -0.005588  0.000000      4.000000
  0.024182 -0.008382  0.000000      4.000000
  0.029018 -0.011176  0.000000      4.000000
  0.033855 -0.013970  0.000000      4.000000
  0.038691 -0.016764  0.000000      4.000000
  0.043527 -0.019559  0.000000      4.000000
  0.048364 -0.022353  0.000000      4.000000
 -0.048364  0.033529  0.000000      4.000000
 -0.043527  0.030735  0.000000      4.000000
 -0.038691  0.027941  0.000000      4.000000
 -0.033855  0.025147  0.000000      4.000000
 -0.029018  0.022353  0.000000      4.000000
 -0.024182  0.019559  0.000000      4.000000
 -0.019346  0.016764  0.000000      4.000000
 -0.014509  0.013970  0.000000      4.000000
 -0.009673  0.011176  0.000000      4.000000
 -0.004836  0.008382  0.000000      4.000000
  0.000000  0.011176  0.000000      2.000000
  0.019346 -0.000000  0.000000      2.000000
  0.024182 -0.002794  0.000000      4.000000
[...]
  rms(prec ) = 0.18343E+01
  weight for this iteration     100.00

[...]

 eigenvalues of (default mixing * dielectric matrix)
  average eigenvalue GAMMA=   1.0118
  1.0118

[...]

 eigenvalue-minimisations  : 30540
 total energy-change (2. order) : 0.3925304E-02  (-0.1910449E-03)
 number of electron     161.9999999 magnetization
 augmentation part      -13.7877015 magnetization

[...]

 eigenvalue-minimisations  : 25680
 total energy-change (2. order) :-0.5018246E-06  (-0.4739180E-09)
 number of electron     161.9999999 magnetization
 augmentation part      -13.7889540 magnetization

[...]

 eigenvalue-minimisations  : 25572
 total energy-change (2. order) :-0.1135541E-06  ( 0.4812223E-09)
 number of electron     161.9999999 magnetization
 augmentation part      -13.7889521 magnetization

 Broyden mixing:
  rms(total) = 0.17003E-05    rms(broyden)= 0.16171E-05
  rms(prec ) = 0.20061E-05
  weight for this iteration     100.00

[...]

 Broyden mixing:
  rms(total) = 0.11846E-05    rms(broyden)= 0.10617E-05
  rms(prec ) = 0.14667E-05
  weight for this iteration     100.00
  WARNING: grid for Broyden might be to small

[...]

 Broyden mixing:
  rms(total) = 0.66361E-06    rms(broyden)= 0.40550E-06
  rms(prec ) = 0.82441E-06
  weight for this iteration     100.00
  WARNING: grid for Broyden might be to small

 eigenvalues of (default mixing * dielectric matrix)
  average eigenvalue GAMMA=   2.5869
 24.1504  7.4610  4.4135  3.3430  2.8749  2.4841  2.4841  2.0122  2.0122  1.6897
  1.3432  1.3432  1.2749  1.0996  1.0996  0.8292  0.8292  0.9884  0.9282  0.9282
  0.8986  0.5273  0.5448  0.5759  0.5584  0.5652

[...]

--------------------------------------- Iteration      1(  32)  ---------------------------------------

 eigenvalue-minimisations  : 21636
 total energy-change (2. order) :-0.3737114E-08  ( 0.6476408E-09)
 number of electron     161.9999999 magnetization
 augmentation part      -13.7889523 magnetization

 Free energy of the ion-electron system (eV)
  alpha Z        PSCENC =       206.49012646
  Ewald energy   TEWEN  =     19419.40912006
  -Hartree energ DENC   =    -25480.75743089
  -exchange      EXHF   =         0.00000000
  -V(xc)+E(xc)   XCENC  =      -429.55149731
  PAW double counting   =      4193.72581574    -3427.69278453
  entropy T*S    EENTRO =        -0.00000000
  eigenvalues    EBANDS =     -1143.15726290
  atomic energy  EATOM  =      6466.84281893
  Solvation  Ediel_sol  =         0.00000000
  free energy    TOTEN  =      -194.69109443 eV

  energy without entropy =     -194.69109443  energy(sigma->0) =     -194.69109443

 average (electrostatic) potential at core
  the test charge radii are     1.1823  1.0808
  (the norm of the test charge is              1.0000)
       1 -47.5204       2 -47.5175       3 -47.5205       4 -47.5174       5 -47.5175
       6 -47.5205       7 -47.5175       8 -47.5175       9 -47.5175      10 -60.1179
      11 -60.1208      12 -60.1208      13 -60.1208      14 -60.1205      15 -60.1209
      16 -60.1208      17 -60.1208      18 -60.1203      19 -60.1204      20 -60.1207
      21 -60.1208      22 -60.1207      23 -60.1203      24 -60.1208      25 -60.1207
      26 -60.1208      27 -60.1204

 E-fermi :  -1.7231     XC(G=0):  -3.9941     alpha+bet : -3.5498

 k-point     1 :       0.0000    0.0000    0.0000
  band No.  band energies     occupation
      1     -16.5454      2.00000
      2     -15.3657      2.00000
      3     -15.1759      2.00000
      4     -15.1758      2.00000
      5     -15.1758      2.00000
      6     -15.1749      2.00000
      7     -15.1741      2.00000
      8     -15.1656      2.00000
      9     -14.6254      2.00000
     10     -14.6253      2.00000
     11     -14.6252      2.00000
     12     -14.6243      2.00000
     13     -14.6234      2.00000
     14     -14.6205      2.00000
     15     -14.2397      2.00000
     16     -14.2363      2.00000
     17     -14.1196      2.00000
     18     -14.1175      2.00000
     19      -8.0034      2.00000
     20      -7.2247      2.00000
     21      -7.2237      2.00000
     22      -7.2228      2.00000
     23      -7.2198      2.00000
     24      -7.2191      2.00000
     25      -7.2182      2.00000
     26      -7.1635      2.00000
     27      -7.1635      2.00000
     28      -7.0453      2.00000
     29      -7.0453      2.00000
     30      -6.2057      2.00000
     31      -6.2051      2.00000
     32      -6.2036      2.00000
     33      -6.2034      2.00000
     34      -6.2023      2.00000
     35      -6.1988      2.00000
     36      -6.1608      2.00000
     37      -6.1608      2.00000
     38      -6.1575      2.00000
     39      -6.1569      2.00000
     40      -6.1564      2.00000
     41      -6.1549      2.00000
     42      -6.1543      2.00000
     43      -6.1536      2.00000
     44      -5.5011      2.00000
     45      -5.4989      2.00000
     46      -5.1225      2.00000
     47      -5.1225      2.00000
     48      -4.3728      2.00000
     49      -4.3700      2.00000
     50      -4.3662      2.00000
     51      -4.3660      2.00000
     52      -4.3626      2.00000
     53      -4.3599      2.00000
     54      -4.1781      2.00000
     55      -4.1765      2.00000
     56      -4.0511      2.00000
     57      -4.0429      2.00000
     58      -4.0357      2.00000
     59      -3.7969      2.00000
     60      -3.7914      2.00000
[...]
     88       0.3255      0.00000
     89       0.3259      0.00000
     90       0.5356      0.00000
     91       0.5380      0.00000
     92       0.5380      0.00000
     93       0.5398      0.00000
     94       0.5408      0.00000
     95       0.5410      0.00000
     96       0.9488      0.00000
     97       0.9488      0.00000
     98       1.2287      0.00000
     99       1.2323      0.00000
    100       1.3708      0.00000
    101       1.3937      0.00000
    102       1.4519      0.00000

[...]

 k-point   121 :      -0.0476    0.4762    0.0000
  band No.  band energies     occupation
      1     -16.1437      2.00000
      2     -16.1403      2.00000
      3     -15.5384      2.00000
      4     -15.3616      2.00000
      5     -15.1429      2.00000
      6     -15.1423      2.00000
      7     -14.8138      2.00000
      8     -14.7188      2.00000
      9     -14.6031      2.00000
     10     -14.6002      2.00000
     11     -14.5407      2.00000
     12     -14.5384      2.00000
     13     -14.5317      2.00000
     14     -14.3203      2.00000
     15     -14.3188      2.00000
     16     -14.3036      2.00000
     17     -14.2910      2.00000
     18     -14.2890      2.00000
     19      -8.1368      2.00000
     20      -7.6384      2.00000
     21      -7.6372      2.00000
     22      -7.4880      2.00000
     23      -7.4866      2.00000
     24      -7.4828      2.00000
     25      -7.4814      2.00000
     26      -6.9477      2.00000
     27      -6.8359      2.00000
     28      -6.8332      2.00000
     29      -6.8056      2.00000
     30      -6.7334      2.00000
     31      -6.7305      2.00000
     32      -6.7242      2.00000
     33      -6.3025      2.00000
     34      -6.1672      2.00000
     35      -5.9616      2.00000
     36      -5.8634      2.00000
     37      -5.8624      2.00000
     38      -5.8622      2.00000
     39      -5.8582      2.00000
     40      -5.5856      2.00000
     41      -5.3543      2.00000
     42      -5.1299      2.00000
     43      -5.1292      2.00000
     44      -5.1258      2.00000
     45      -5.1215      2.00000
     46      -5.0649      2.00000
     47      -5.0644      2.00000
     48      -5.0256      2.00000
     49      -4.8485      2.00000
     50      -4.7515      2.00000
     51      -4.7507      2.00000
     52      -4.7172      2.00000
     53      -4.5075      2.00000
     54      -4.5057      2.00000
     55      -4.3591      2.00000
     56      -4.3571      2.00000
     57      -3.9895      2.00000
     58      -3.8565      2.00000
     59      -3.8549      2.00000
     60      -3.8316      2.00000
[...]
     88       0.4282      0.00000
     89       0.4288      0.00000
     90       0.6592      0.00000
     91       0.6854      0.00000
     92       0.7159      0.00000
     93       0.7669      0.00000
     94       0.7691      0.00000
     95       0.7700      0.00000
     96       0.8485      0.00000
     97       0.9146      0.00000
     98       0.9175      0.00000
     99       1.0071      0.00000
    100       1.0414      0.00000
    101       1.0709      0.00000
    102       1.0805      0.00000

 soft charge-density along one line, spin component           1
         0         1         2         3         4         5         6         7         8         9
 total charge-density along one line

------------------------ aborting loop because EDIFF is reached ----------------------------------------

  FORCE on cell =-STRESS in cart. coord.  units (eV):
  Direction    XX          YY          ZZ          XY          YZ          ZX
  Alpha Z   206.49013   206.49013   206.49013
  Ewald   24327.28425 24328.07896-29235.97100    -0.00000    -0.00044     0.00000
  Hartree 25247.45841 25247.74704-25014.44799     0.00019    -0.00004     0.00000
  E(xc)    -642.42481  -642.44530  -650.04641    -0.00001     0.00001    -0.00000
  Local  -51722.20918-51723.34620 52084.49628    -0.00043     0.00044     0.00000
  n-local   625.24325   625.23136   673.96579    -0.03194    -0.00009     0.00261
  augment   -25.08898   -25.08124   -31.55452     0.00002     0.00001     0.00000
  Kinetic  1991.43445  1991.86813  1966.76629     3.47791    -0.00006    -0.00145
  Fock        0.00000     0.00000     0.00000     0.00000     0.00000     0.00000
  Total       8.18751     8.54288    -0.30143     0.00000    -0.00016     0.00000
  in kB       7.81735     8.15665    -0.28780     0.00000    -0.00015     0.00000

 VOLUME and BASIS-vectors are now :
  energy-cutoff  :      800.00
  volume of cell :     1678.04
      direct lattice vectors                 reciprocal lattice vectors
     9.846000000  0.000000000  0.000000000     0.101564087 -0.058675529  0.000000000
     4.923000000  8.521440000  0.000000000     0.000000000  0.117351058  0.000000000
     0.000000000  0.000000000 20.000000000     0.000000000  0.000000000  0.050000000

  length of vectors
     9.846000000  9.841283894 20.000000000     0.117294848  0.117351058  0.050000000

 FORCES acting on ions
    electron-ion (+dipol)            ewald-force                    non-local-force                 convergence-correction
   0.389E+00 -.274E+00 0.759E-01   -.403E+00 0.283E+00 -.868E-01   -.177E-01 0.975E-02 -.329E-01   0.224E-06 0.101E-05 0.965E-05
   -.107E-04 -.569E-01 -.610E-01   0.544E-03 0.579E-01 0.595E-01   0.812E-17 -.139E-02 0.451E-03   0.345E-07 0.102E-05 0.996E-05
   -.389E+00 -.275E+00 0.759E-01   0.402E+00 0.283E+00 -.868E-01   0.177E-01 0.975E-02 -.329E-01   -.259E-06 0.107E-05 0.965E-05
   0.577E-01 -.180E-01 -.634E-01   -.593E-01 0.177E-01 0.621E-01   0.307E-03 -.200E-03 -.114E-02   0.284E-06 -.253E-06 0.990E-05
   -.578E-01 -.180E-01 -.634E-01   0.595E-01 0.172E-01 0.621E-01   -.307E-03 -.200E-03 -.114E-02   -.212E-06 -.251E-06 0.990E-05
   0.556E-04 0.398E+00 0.761E-01   -.318E-03 -.414E+00 -.870E-01   -.783E-17 -.209E-01 -.329E-01   -.727E-07 -.121E-06 0.964E-05
   -.500E-04 -.119E+00 -.634E-01   -.227E-03 0.121E+00 0.621E-01   0.960E-17 -.772E-03 -.114E-02   0.381E-07 -.107E-05 0.992E-05
   0.554E-02 -.484E-01 -.610E-01   -.600E-02 0.485E-01 0.595E-01   0.878E-03 0.644E-04 0.460E-03   0.112E-06 -.738E-06 0.999E-05
   -.552E-02 -.485E-01 -.610E-01   0.620E-02 0.486E-01 0.595E-01   -.878E-03 0.644E-04 0.460E-03   -.150E-06 -.676E-06 0.999E-05
   0.832E-04 0.272E-01 0.499E+03   0.385E-03 -.262E-01 -.501E+03   0.127E-16 -.919E-03 0.267E+01   -.497E-07 0.159E-05 0.909E-05
   0.214E-03 0.271E-01 0.498E+03   -.114E-02 -.263E-01 -.500E+03   0.310E-04 -.704E-03 0.260E+01   0.450E-06 0.787E-06 0.953E-05
   -.395E-02 0.271E-01 0.498E+03   0.727E-03 -.267E-01 -.500E+03   -.310E-04 -.704E-03 0.260E+01   -.400E-06 0.831E-06 0.955E-05
   0.509E-03 0.285E-01 0.498E+03   0.972E-04 -.264E-01 -.500E+03   0.294E-03 -.109E-02 0.260E+01   -.508E-06 -.133E-05 0.101E-04
   -.189E-02 0.265E-01 0.498E+03   -.488E-03 -.255E-01 -.500E+03   0.715E-18 -.976E-03 0.260E+01   0.630E-07 -.684E-06 0.101E-04
   -.435E-03 0.286E-01 0.498E+03   0.439E-03 -.264E-01 -.500E+03   -.294E-03 -.109E-02 0.260E+01   0.445E-06 -.135E-05 0.101E-04
   -.160E-02 0.245E-01 0.498E+03   0.703E-03 -.246E-01 -.500E+03   0.257E-03 -.113E-02 0.260E+01   0.346E-06 -.134E-06 0.876E-05
   0.163E-02 0.246E-01 0.498E+03   -.826E-03 -.243E-01 -.500E+03   -.257E-03 -.113E-02 0.260E+01   -.332E-06 -.199E-06 0.877E-05
   -.393E-05 0.262E-01 0.498E+03   0.101E-03 -.252E-01 -.500E+03   -.559E-17 -.955E-03 0.260E+01   -.132E-07 0.490E-06 0.917E-05
   0.831E-04 0.276E-01 -.498E+03   0.387E-03 -.266E-01 0.500E+03   0.467E-17 -.989E-03 -.261E+01   -.497E-07 0.157E-05 0.103E-04
   0.556E-01 0.271E-01 -.498E+03   -.590E-01 -.263E-01 0.500E+03   -.323E-03 -.205E-02 -.260E+01   0.766E-06 0.664E-06 0.104E-04
   -.593E-01 0.270E-01 -.498E+03   0.585E-01 -.267E-01 0.500E+03   0.323E-03 -.205E-02 -.260E+01   -.716E-06 0.708E-06 0.103E-04
   0.282E-01 0.765E-01 -.498E+03   -.288E-01 -.765E-01 0.500E+03   -.106E-02 -.719E-03 -.260E+01   -.411E-06 -.973E-06 0.981E-05
   -.189E-02 0.265E-01 -.498E+03   -.488E-03 -.255E-01 0.500E+03   0.134E-16 -.978E-03 -.260E+01   0.630E-07 -.662E-06 0.981E-05
   -.281E-01 0.766E-01 -.498E+03   0.294E-01 -.765E-01 0.500E+03   0.106E-02 -.719E-03 -.260E+01   0.349E-06 -.994E-06 0.979E-05
   -.294E-01 -.234E-01 -.498E+03   0.296E-01 0.255E-01 0.500E+03   -.728E-03 -.154E-03 -.260E+01   0.818E-07 -.371E-06 0.112E-04
   0.294E-01 -.233E-01 -.498E+03   -.298E-01 0.258E-01 0.500E+03   0.728E-03 -.154E-03 -.260E+01   -.686E-07 -.436E-06 0.111E-04
   -.393E-05 0.262E-01 -.498E+03   0.101E-03 -.252E-01 0.500E+03   0.344E-17 -.953E-03 -.260E+01   -.132E-07 0.497E-06 0.110E-04
   -.109E-01 0.213E-01 0.382E-01   0.547E-15 -.369E-13 -.568E-12   0.234E-16 -.213E-01 -.385E-01   -.101E-10 -.114E-07 0.267E-03

 POSITION                                       TOTAL-FORCE (eV/Angst)
      3.28200      0.00057      0.00000        -0.031686      0.018236     -0.043744
      6.56400      0.00057      0.00000         0.000000     -0.000345     -0.001072
      9.84600      0.00057      0.00000         0.031686      0.018236     -0.043744
      4.92300      2.84105      0.00000        -0.001326     -0.000729     -0.002418
      8.20500      2.84105      0.00000         0.001326     -0.000729     -0.002418
     11.48700      2.84105      0.00000         0.000000     -0.036743     -0.043811
      6.56400      5.68153      0.00000         0.000000      0.001527     -0.002418
      9.84600      5.68153      0.00000         0.000315      0.000133     -0.001066
     13.12800      5.68153      0.00000        -0.000315      0.000133     -0.001066
      1.64100      0.94715     18.29918         0.000000      0.000065      0.138073
      4.92300      0.94715     18.30918         0.001178     -0.000062      0.003287
      8.20500      0.94715     18.30918        -0.001178     -0.000062      0.003287
      3.28200      3.78763     18.30918         0.000594      0.001067      0.003287
      6.56400      3.78763     18.30918         0.000000      0.000008     -0.000193
      9.84600      3.78763     18.30918        -0.000594      0.001067      0.003287
      4.92300      6.62810     18.30918        -0.000590     -0.000968      0.003300
      8.20500      6.62810     18.30918         0.000590     -0.000968      0.003300
     11.48700      6.62810     18.30918         0.000000      0.000041     -0.000114
      1.64100      0.94715      1.69082         0.000000     -0.000017     -0.014196
      4.92300      0.94715      1.69082        -0.001638     -0.001482     -0.000588
      8.20500      0.94715      1.69082         0.001638     -0.001482     -0.000588
      3.28200      3.78763      1.69082        -0.002047     -0.000665     -0.000581
      6.56400      3.78763      1.69082         0.000000      0.000008      0.001023
      9.84600      3.78763      1.69082         0.002047     -0.000665     -0.000581
      4.92300      6.62810      1.69082        -0.000407      0.002178     -0.000594
      8.20500      6.62810      1.69082         0.000407      0.002178     -0.000594
     11.48700      6.62810      1.69082         0.000000      0.000041      0.000943
    total drift:                               -0.010905      0.000050     -0.000002

  FREE ENERGIE OF THE ION-ELECTRON SYSTEM (eV)
  free  energy   TOTEN  =      -194.69109443 eV

  energy  without entropy=     -194.69109443  energy(sigma->0) =     -194.69109443