 vasp.5.4.4.18Apr17-6-g9f103f2a35 (build May 31 2018 21:15:54) complex

 executed on          c7_intel_O1 date 2020.08.17  20:03:14

 INCAR:
 POTCAR:   PAW_PBE C 08Apr2002
 POTCAR:   PAW_PBE C 08Apr2002
   VRHFIN =C: s2p2

   TITEL  = PAW_PBE C 08Apr2002
   POMASS =   12.011; ZVAL   =    4.000    mass and valenz
   ENMAX  =  400.000; ENMIN  =  300.000 eV
   QCUT   =   -5.516; QGAM   =   11.032    optimization parameters

   Description
     l     E      TYP  RCUT    TYP  RCUT
     0   .000     23  1.200
     0   .000     23  1.200
     1   .000     23  1.500
     1  2.500     23  1.500
     2   .000      7  1.500

 PAW_PBE C 08Apr2002                    :

 POSCAR: C2_bilayer
  positions in direct lattice
  velocities in cartesian coordinates
 exchange correlation table for  LEXCH =        8
   RHO(1)=    0.500       N(1)  =     2000
   RHO(2)=  100.500       N(2)  =     4000

 ion  position               nearest neighbor table
   1  0.000  0.000  0.000-   2 1.42   2 1.42   2 1.42
   2  0.333  0.333  0.000-   1 1.42   1 1.42   1 1.42
   3  0.000  0.000  0.222-   4 1.42   4 1.42   4 1.42
   4  0.333  0.333  0.222-   3 1.42   3 1.42   3 1.42

  LATTYP: Found a hexagonal cell.
 ALAT       =     2.4595120000
 C/A-ratio  =     8.1316944174

  Lattice vectors:

 A1 = (   0.0000000000,  -2.4595120000,   0.0000000000)
 A2 = (  -2.1300000000,   1.2297560000,   0.0000000000)
 A3 = (   0.0000000000,   0.0000000000, -20.0000000000)

Analysis of symmetry for initial positions (statically):
 Subroutine PRICEL returns:
 Original cell was already a primitive cell.

 Routine SETGRP: Setting up the symmetry group for a
 hexagonal supercell.

 Subroutine GETGRP returns: Found 24 space group operations
 (whereof  6 operations were pure point group operations)
 out of a pool of 24 trial point group operations.

The static configuration has the point symmetry C_3v.
 The point group associated with its full space group is D_6h.

Analysis of symmetry for dynamics (positions and initial velocities):
 Subroutine PRICEL returns:
 Original cell was already a primitive cell.

[...]

The dynamic configuration has the point symmetry C_3v.
 The point group associated with its full space group is D_6h.

Analysis of constrained symmetry for selective dynamics:
 Subroutine PRICEL returns:
 Original cell was already a primitive cell.

 Routine SETGRP: Setting up the symmetry group for a
 hexagonal supercell.

 Subroutine GETGRP returns: Found 12 space group operations
 (whereof  6 operations were pure point group operations)
 out of a pool of 24 trial point group operations.

The constrained configuration has the point symmetry C_3v.
 The point group associated with its full space group is C_6v.

 Subroutine INISYM returns: Found 12 space group operations
 (whereof  6 operations are pure point group operations),
 and found     1 'primitive' translations

 KPOINTS: C-4

Automatic generation of k-mesh.
Space group operators:
 irot       det(A)        alpha          n_x          n_y          n_z        tau_x        tau_y        tau_z
    1     1.000000     0.000000     1.000000     0.000000     0.000000     0.000000     0.000000     0.000000
    2     1.000000   120.000000     0.000000     0.000000     1.000000     0.000000     0.000000     0.000000
    3     1.000000   120.000000     0.000000     0.000000    -1.000000     0.000000     0.000000     0.000000
    4    -1.000000   180.000000    -0.000000     1.000000     0.000000     0.000000     0.000000     0.000000
    5    -1.000000   180.000000     0.866025    -0.500000     0.000000     0.000000     0.000000     0.000000
    6    -1.000000   180.000000     0.866025     0.500000     0.000000     0.000000     0.000000     0.000000
    7     1.000000    60.000000     0.000000     0.000000     1.000000     0.333333    -0.666667     0.000000
    8     1.000000   180.000000     0.000000     0.000000     1.000000     0.333333    -0.666667     0.000000
    9     1.000000    60.000000     0.000000     0.000000    -1.000000     0.333333    -0.666667     0.000000
   10    -1.000000   180.000000     0.500000    -0.866025     0.000000     0.333333    -0.666667     0.000000
   11    -1.000000   180.000000     1.000000     0.000000     0.000000     0.333333    -0.666667     0.000000
   12    -1.000000   180.000000    -0.500000    -0.866025     0.000000     0.333333    -0.666667     0.000000

 Subroutine IBZKPT returns following result:

 Found     48 irreducible k-points:

 Following reciprocal coordinates:
            Coordinates               Weight
  0.000000  0.000000  0.000000      1.000000
  0.047619  0.000000  0.000000      6.000000
  0.095238  0.000000  0.000000      6.000000
  0.142857  0.000000  0.000000      6.000000
  0.190476  0.000000  0.000000      6.000000
  0.238095  0.000000  0.000000      6.000000
  0.285714  0.000000  0.000000      6.000000
  0.333333  0.000000  0.000000      6.000000
  0.380952  0.000000  0.000000      6.000000
  0.428571  0.000000  0.000000      6.000000
  0.476190  0.000000  0.000000      6.000000
  0.095238  0.047619  0.000000      6.000000
  0.142857  0.047619  0.000000     12.000000
  0.190476  0.047619  0.000000     12.000000
  0.238095  0.047619  0.000000     12.000000
  0.285714  0.047619  0.000000     12.000000
  0.333333  0.047619  0.000000     12.000000
  0.380952  0.047619  0.000000     12.000000
  0.428571  0.047619  0.000000     12.000000
  0.476190  0.047619  0.000000     12.000000
 -0.476190  0.047619  0.000000      6.000000
  0.190476  0.095238  0.000000      6.000000
  0.238095  0.095238  0.000000     12.000000
  0.285714  0.095238  0.000000     12.000000
  0.333333  0.095238  0.000000     12.000000
  0.380952  0.095238  0.000000     12.000000
  0.428571  0.095238  0.000000     12.000000
  0.476190  0.095238  0.000000     12.000000
 -0.476190  0.095238  0.000000     12.000000
  0.285714  0.142857  0.000000      6.000000
  0.333333  0.142857  0.000000     12.000000
  0.380952  0.142857  0.000000     12.000000
  0.428571  0.142857  0.000000     12.000000
  0.476190  0.142857  0.000000     12.000000
 -0.476190  0.142857  0.000000     12.000000
 -0.428571  0.142857  0.000000      6.000000
  0.380952  0.190476  0.000000      6.000000
  0.428571  0.190476  0.000000     12.000000
  0.476190  0.190476  0.000000     12.000000
 -0.476190  0.190476  0.000000     12.000000
 -0.428571  0.190476  0.000000     12.000000
  0.476190  0.238095  0.000000      6.000000
 -0.476190  0.238095  0.000000     12.000000
 -0.428571  0.238095  0.000000     12.000000
 -0.380952  0.238095  0.000000      6.000000
 -0.428571  0.285714  0.000000      6.000000
 -0.380952  0.285714  0.000000     12.000000
 -0.333333  0.333333  0.000000      2.000000

 Following cartesian coordinates:
            Coordinates               Weight
  0.000000  0.000000  0.000000      1.000000
  0.011178 -0.019361  0.000000      6.000000
  0.022356 -0.038722  0.000000      6.000000
  0.033535 -0.058084  0.000000      6.000000
  0.044713 -0.077445  0.000000      6.000000
  0.055891 -0.096806  0.000000      6.000000
  0.067069 -0.116167  0.000000      6.000000
  0.078247 -0.135528  0.000000      6.000000
  0.089425 -0.154889  0.000000      6.000000
  0.100604 -0.174251  0.000000      6.000000
  0.111782 -0.193612  0.000000      6.000000
  0.033535 -0.019361  0.000000      6.000000
  0.044713 -0.038722  0.000000     12.000000
  0.055891 -0.058084  0.000000     12.000000
  0.067069 -0.077445  0.000000     12.000000
  0.078247 -0.096806  0.000000     12.000000
  0.089425 -0.116167  0.000000     12.000000
  0.100604 -0.135528  0.000000     12.000000
  0.111782 -0.154889  0.000000     12.000000
  0.122960 -0.174251  0.000000     12.000000
 -0.100604  0.212973  0.000000      6.000000
  0.067069 -0.038722  0.000000      6.000000
  0.078247 -0.058084  0.000000     12.000000
  0.089425 -0.077445  0.000000     12.000000
  0.100604 -0.096806  0.000000     12.000000
  0.111782 -0.116167  0.000000     12.000000
  0.122960 -0.135528  0.000000     12.000000
  0.134138 -0.154889  0.000000     12.000000
 -0.089425  0.232334  0.000000     12.000000
  0.100604 -0.058084  0.000000      6.000000
  0.111782 -0.077445  0.000000     12.000000
  0.122960 -0.096806  0.000000     12.000000
  0.134138 -0.116167  0.000000     12.000000
  0.145316 -0.135528  0.000000     12.000000
 -0.078247  0.251695  0.000000     12.000000
 -0.067069  0.232334  0.000000      6.000000
  0.134138 -0.077445  0.000000      6.000000
  0.145316 -0.096806  0.000000     12.000000
  0.156495 -0.116167  0.000000     12.000000
 -0.067069  0.271056  0.000000     12.000000
 -0.055891  0.251695  0.000000     12.000000
  0.167673 -0.096806  0.000000      6.000000
 -0.055891  0.290418  0.000000     12.000000
 -0.044713  0.271056  0.000000     12.000000
 -0.033535  0.251695  0.000000      6.000000
 -0.033535  0.290418  0.000000      6.000000
 -0.022356  0.271056  0.000000     12.000000
  0.000000  0.271056  0.000000      2.000000

 SYSTEM =  C-4
 POSCAR =  C2_bilayer

 Startparameter for this run:
   NWRITE =      2    write-flag & timer
   PREC   = accura    normal or accurate (medium, high low for compatibility)
   ISTART =      0    job   : 0-new  1-cont  2-samecut
   ICHARG =      2    charge: 1-file 2-atom 10-const
   ISPIN  =      1    spin polarized calculation?
   LNONCOLLINEAR =      F non collinear calculations
   LSORBIT =      F    spin-orbit coupling
   INIWAV =      1    electr: 0-lowe 1-rand  2-diag
   LASPH  =      F    aspherical Exc in radial PAW
   METAGGA=      F    non-selfconsistent MetaGGA calc.

 Electronic Relaxation 1
   ENCUT  =  800.0 eV  58.80 Ry    7.67 a.u.   5.67  5.67 46.12*2*pi/ulx,y,z
   ENINI  =  800.0     initial cutoff
   ENAUG  =  644.9 eV  augmentation charge cutoff
   NELM   =     60;   NELMIN=  5; NELMDL= -5     # of ELM steps
   EDIFF  = 0.1E-07   stopping-criterion for ELM
   LREAL  =      F    real-space projection
   NLSPLINE    = F    spline interpolate recip. space projectors
   LCOMPAT=      F    compatible to vasp.4.4
   GGA_COMPAT  = T    GGA compatible to vasp.4.4-vasp.4.6
   LMAXPAW     = -100 max onsite density
   LMAXMIX     =    2 max onsite mixed and CHGCAR
   VOSKOWN=      0    Vosko Wilk Nusair interpolation
   ROPT   =    0.00000
 Ionic relaxation
   EDIFFG = -.1E-07   stopping-criterion for IOM
   NSW    =     80    number of steps for IOM
   NBLOCK =      1;   KBLOCK =     80    inner block; outer block
   IBRION =      2    ionic relax: 0-MD 1-quasi-New 2-CG
   NFREE  =      1    steps in history (QN), initial steepest desc. (CG)
   ISIF   =      2    stress and relaxation
   IWAVPR =     11    prediction:  0-non 1-charg 2-wave 3-comb
   ISYM   =      2    0-nonsym 1-usesym 2-fastsym
   LCORR  =      T    Harris-Foulkes like correction to forces

   POTIM  = 0.5000    time-step for ionic-motion
   TEIN   =    0.0    initial temperature
   TEBEG  =    0.0;   TEEND  =   0.0 temperature during run
   SMASS  =  -3.00    Nose mass-parameter (am)
   estimated Nose-frequenzy (Omega)   =  0.10E-29 period in steps =****** mass=  -0.138E-27a.u.
   SCALEE = 1.0000    scale energy and forces
   NPACO  =    256;   APACO  = 16.0  distance and # of slots for P.C.
   PSTRESS=    0.0 pullay stress

[...]
 k-point 10 :   0.4286 0.0000 0.0000  plane waves:    5396
 k-point 11 :   0.4762 0.0000 0.0000  plane waves:    5380
 k-point 12 :   0.0952 0.0476 0.0000  plane waves:    5411
 k-point 13 :   0.1429 0.0476 0.0000  plane waves:    5415
 k-point 14 :   0.1905 0.0476 0.0000  plane waves:    5413
 k-point 15 :   0.2381 0.0476 0.0000  plane waves:    5399
 k-point 16 :   0.2857 0.0476 0.0000  plane waves:    5396
 k-point 17 :   0.3333 0.0476 0.0000  plane waves:    5389
 k-point 18 :   0.3810 0.0476 0.0000  plane waves:    5378
 k-point 19 :   0.4286 0.0476 0.0000  plane waves:    5381
 k-point 20 :   0.4762 0.0476 0.0000  plane waves:    5391
 k-point 21 :  -0.4762 0.0476 0.0000  plane waves:    5394
 k-point 22 :   0.1905 0.0952 0.0000  plane waves:    5403
 k-point 23 :   0.2381 0.0952 0.0000  plane waves:    5409
 k-point 24 :   0.2857 0.0952 0.0000  plane waves:    5419
 k-point 25 :   0.3333 0.0952 0.0000  plane waves:    5384
 k-point 26 :   0.3810 0.0952 0.0000  plane waves:    5369
 k-point 27 :   0.4286 0.0952 0.0000  plane waves:    5364
 k-point 28 :   0.4762 0.0952 0.0000  plane waves:    5382
 k-point 29 :  -0.4762 0.0952 0.0000  plane waves:    5404
 k-point 30 :   0.2857 0.1429 0.0000  plane waves:    5405
 k-point 31 :   0.3333 0.1429 0.0000  plane waves:    5404
 k-point 32 :   0.3810 0.1429 0.0000  plane waves:    5382
 k-point 33 :   0.4286 0.1429 0.0000  plane waves:    5347
 k-point 34 :   0.4762 0.1429 0.0000  plane waves:    5367
 k-point 35 :  -0.4762 0.1429 0.0000  plane waves:    5376
 k-point 36 :  -0.4286 0.1429 0.0000  plane waves:    5400
 k-point 37 :   0.3810 0.1905 0.0000  plane waves:    5390
 k-point 38 :   0.4286 0.1905 0.0000  plane waves:    5358
 k-point 39 :   0.4762 0.1905 0.0000  plane waves:    5365
 k-point 40 :  -0.4762 0.1905 0.0000  plane waves:    5363
 k-point 41 :  -0.4286 0.1905 0.0000  plane waves:    5377
 k-point 42 :   0.4762 0.2381 0.0000  plane waves:    5364
 k-point 43 :  -0.4762 0.2381 0.0000  plane waves:    5368
 k-point 44 :  -0.4286 0.2381 0.0000  plane waves:    5360
 k-point 45 :  -0.3810 0.2381 0.0000  plane waves:    5366
 k-point 46 :  -0.4286 0.2857 0.0000  plane waves:    5362
 k-point 47 :  -0.3810 0.2857 0.0000  plane waves:    5326
 k-point 48 :  -0.3333 0.3333 0.0000  plane waves:    5334

 maximum and minimum number of plane-waves per node :       928      874

 maximum number of plane-waves:      5419
 maximum index in each direction:
   IXMAX=    6   IYMAX=    5   IZMAX=   46
   IXMIN=   -6   IYMIN=   -5   IZMIN=  -46

 parallel 3D FFT for wavefunctions:
    minimum data exchange during FFTs selected (reduces bandwidth)
 parallel 3D FFT for charge:
    minimum data exchange during FFTs selected (reduces bandwidth)

 Broyden mixing: mesh for mixing (old mesh)
   NGX = 11   NGY = 11   NGZ = 93
  (NGX  = 48   NGY  = 48   NGZ  =384)
  gives a total of  11253 points

 initial charge density was supplied:
 charge density of overlapping atoms calculated
 number of electron      16.0000000 magnetization
 keeping initial charge density in first step

 Maximum index for augmentation-charges         3270 (set IRDMAX)

 First call to EWALD:  gamma=   0.376
 Maximum number of real-space cells 5x 5x 1
 Maximum number of reciprocal cells 2x 2x10

--------------------------------------- Iteration      1(   1)  ---------------------------------------

 eigenvalue-minimisations  :  1152
 total energy-change (2. order) : 0.1130698E+03  (-0.8731683E+03)
 number of electron      16.0000000 magnetization
 augmentation part       16.0000000 magnetization

 Free energy of the ion-electron system (eV)
  alpha Z        PSCENC =        12.44266281
  Ewald energy   TEWEN  =      2473.15002607
  -Hartree energ DENC   =     -2934.89885930
  -exchange      EXHF   =         0.00000000
  -V(xc)+E(xc)   XCENC  =        55.19718424
  PAW double counting   =       151.32577238     -155.92769107
  entropy T*S    EENTRO =        -0.00004944
  eigenvalues    EBANDS =       -76.83694712
  atomic energy  EATOM  =       588.61769381
  Solvation  Ediel_sol  =         0.00000000
  free energy    TOTEN  =       113.06979238 eV

  energy without entropy =      113.06984182  energy(sigma->0) =      113.06981710

[...]

 eigenvalue-minimisations  :  1884
 total energy-change (2. order) :-0.1451198E+03  (-0.1326129E+03)
 number of electron      16.0000000 magnetization
 augmentation part       16.0000000 magnetization

[...]

 Broyden mixing:
  rms(total) = 0.78959E+00    rms(broyden)= 0.78958E+00
  rms(prec ) = 0.86043E+00
  weight for this iteration     100.00

[...]

 eigenvalues of (default mixing * dielectric matrix)
  average eigenvalue GAMMA=   2.0318
  2.0318

[...]

 average (electrostatic) potential at core
  the test charge radii are     0.6991
  (the norm of the test charge is              1.0000)
       1 -56.6349       2 -56.6349       3 -56.6349       4 -56.6349

 E-fermi :  -1.2197     XC(G=0):  -4.0318     alpha+bet : -3.8326

 k-point     1 :       0.0000    0.0000    0.0000
  band No.  band energies     occupation
      1     -20.7948      2.00000
      2     -20.7831      2.00000
      3      -8.9732      2.00000
      4      -8.7915      2.00000
      5      -4.2421      2.00000
      6      -4.2421      2.00000
      7      -4.2417      2.00000
      8      -4.2416      2.00000
      9       1.9307      0.00000
     10       2.4889      0.00000
     11       3.1071      0.00000
     12       4.0016      0.00000

[...]

 soft charge-density along one line, spin component           1
         0         1         2         3         4         5         6         7         8         9
 total charge-density along one line

------------------------ aborting loop because EDIFF is reached ----------------------------------------

  FORCE on cell =-STRESS in cart. coord.  units (eV):
  Direction    XX          YY          ZZ          XY          YZ          ZX
  Alpha Z    12.44266    12.44266    12.44266
  Ewald    3012.30630  3012.30506 -3551.46173     0.00000    -0.00000     0.00000
  Hartree  2974.98645  2974.98644 -2952.45486    -0.00000     0.00000    -0.00000
  E(xc)     -58.45138   -58.45138   -60.79524    -0.00000     0.00000    -0.00000
  Local   -6165.72662 -6165.72602  6291.19438    -0.00000    -0.00000     0.00000
  n-local   -14.66660   -13.59600   -12.84968     0.71429    -0.00000    -0.00000
  augment    -1.56153    -1.56153    -1.42743     0.00000    -0.00000    -0.00000
  Kinetic   245.07538   236.87263   275.30712    -6.59682     0.00000     0.00000
  Fock        0.00000     0.00000     0.00000     0.00000     0.00000     0.00000
  Total       0.83826     0.83826    -0.04478     0.00000     0.00000     0.00000
  in kB      12.81834    12.81834    -0.68480     0.00000     0.00000     0.00000

 VOLUME and BASIS-vectors are now :
  energy-cutoff  :      800.00
  volume of cell :      104.78
      direct lattice vectors                 reciprocal lattice vectors
     2.130000000 -1.229756000  0.000000000     0.234741784 -0.406584721  0.000000000
     2.130000000  1.229756000  0.000000000     0.234741784  0.406584721  0.000000000
     0.000000000  0.000000000 20.000000000     0.000000000  0.000000000  0.050000000

[...]

 FORCES acting on ions
    electron-ion (+dipol)            ewald-force                    non-local-force                 convergence-correction
   0.199E-06 0.197E-12 0.307E+03   -.241E-03 0.693E-14 -.307E+03   -.625E-16 -.333E-16 -.127E-02   -.129E-09 0.216E-16 -.930E-05
   0.271E-03 0.123E-13 0.307E+03   0.241E-03 -.456E-14 -.307E+03   -.952E-17 0.452E-16 -.127E-02   0.274E-09 -.292E-15 -.930E-05
   0.193E-06 -.361E-14 -.307E+03   -.241E-03 0.683E-14 0.307E+03   -.283E-17 0.495E-16 0.127E-02   -.128E-09 0.282E-15 0.116E-04
   0.271E-03 0.405E-12 -.307E+03   0.241E-03 -.465E-14 0.307E+03   0.861E-16 0.175E-16 0.127E-02   0.262E-09 0.192E-14 0.116E-04
   0.542E-03 0.611E-12 -.842E-05   0.858E-14 0.456E-14 0.000E+00   0.112E-16 0.790E-16 -.271E-05   0.278E-09 0.193E-14 0.455E-05

 POSITION                                       TOTAL-FORCE (eV/Angst)
      0.00000      0.00000      0.00000         0.000000     -0.000000      0.000003
      1.42000      0.00000      0.00000        -0.000000     -0.000000      0.000003
      0.00000      0.00000      4.43868        -0.000000      0.000000     -0.000003
      1.42000      0.00000      4.43868         0.000000     -0.000000     -0.000003
    total drift:                                0.000542      0.000000     -0.000007

  FREE ENERGIE OF THE ION-ELECTRON SYSTEM (eV)
  free  energy   TOTEN  =       -36.91776954 eV

  energy  without entropy=      -36.91776954  energy(sigma->0) =      -36.91776954

[...]

 Broyden mixing:
  rms(total) = 0.81352E-06    rms(broyden)= 0.71205E-06
  rms(prec ) = 0.82462E-06
  weight for this iteration     100.00
  WARNING: grid for Broyden might be to small

[...]

 d Force = 0.4306757E-12[ 0.452E-13, 0.816E-12]  d Energy = 0.2415663E-07-0.242E-07
 d Force =-0.8624774E-04[-0.862E-04,-0.862E-04]  d Ewald  =-0.8624775E-04 0.546E-11

 Steepest descent step on ions:
 trial-energy change:   -0.000000  1 .order   -0.000000   -0.000000   -0.000000
  (g-gl).g = 0.816E-12      g.g   = 0.816E-12  gl.gl    = 0.000E+00
 g(Force)  = 0.816E-12   g(Stress)= 0.000E+00 ortho     = 0.000E+00
 gamma     =   0.00000
 trial     =   1.00000
 opt step  =   1.05866  (harmonic =   1.05866) maximal distance =0.00000000
 next E    =   -36.917770   (d E  =  -0.00000)

[...]

 eigenvalue-minimisations  :  1368
 total energy-change (2. order) :-0.2046363E-11  ( 0.1236602E-14)
 number of electron      16.0000000 magnetization
 augmentation part        0.3849085 magnetization

[...]

 eigenvalue-minimisations  :  1200
 total energy-change (2. order) : 0.6366463E-11  ( 0.1236240E-12)
 number of electron      16.0000000 magnetization
 augmentation part        0.3849085 magnetization

[...]

 d Force = 0.4552915E-14[ 0.480E-14, 0.430E-14]  d Energy =-0.2046363E-11 0.205E-11
 d Force =-0.1011874E-04[-0.101E-04,-0.101E-04]  d Ewald  =-0.1011874E-04 0.500E-11

[...]

 eigenvalue-minimisations  :   624
 total energy-change (2. order) :-0.2842171E-11  ( 0.3205700E-13)
 number of electron      16.0000000 magnetization
 augmentation part        0.3849085 magnetization

[...]

 d Force = 0.5137002E-13[ 0.370E-13, 0.657E-13]  d Energy =-0.8299139E-11 0.835E-11
 d Force =-0.3237997E-03[-0.324E-03,-0.324E-03]  d Ewald  =-0.3237997E-03 0.136E-11

[...]

 eigenvalue-minimisations  :   864
 total energy-change (2. order) : 0.3410605E-11  ( 0.6460541E-13)
 number of electron      16.0000000 magnetization
 augmentation part        0.3849085 magnetization

[...]

 d Force = 0.7550233E-13[ 0.770E-13, 0.741E-13]  d Energy = 0.8526513E-11-0.845E-11
 d Force =-0.6475995E-03[-0.648E-03,-0.648E-03]  d Ewald  =-0.6475995E-03-0.273E-11

[...]

 eigenvalue-minimisations  :  1188
 total energy-change (2. order) :-0.1193712E-10  (-0.1734484E-10)
 number of electron      16.0000000 magnetization
 augmentation part        0.3849085 magnetization

 Broyden mixing:
  rms(total) = 0.17812E-05    rms(broyden)= 0.17372E-05
  rms(prec ) = 0.18382E-05
  weight for this iteration     100.00

[...]

 Broyden mixing:
  rms(total) = 0.41971E-06    rms(broyden)= 0.14640E-06
  rms(prec ) = 0.15766E-06
  weight for this iteration     100.00
  WARNING: grid for Broyden might be to small

 eigenvalues of (default mixing * dielectric matrix)
  average eigenvalue GAMMA=   1.6827
  2.3701  1.3390  1.3390

[...]

--------------------------------------- Iteration     11(   5)  ---------------------------------------

 eigenvalue-minimisations  :  1176
 total energy-change (2. order) : 0.4092726E-11  (-0.3230472E-14)
 number of electron      16.0000000 magnetization
 augmentation part        0.3849085 magnetization

 Free energy of the ion-electron system (eV)
  alpha Z        PSCENC =        12.44266281
  Ewald energy   TEWEN  =      2473.15269766
  -Hartree energ DENC   =     -2997.52072906
  -exchange      EXHF   =         0.00000000
  -V(xc)+E(xc)   XCENC  =        57.63646915
  PAW double counting   =       279.83968871     -285.00070287
  entropy T*S    EENTRO =        -0.00000000
  eigenvalues    EBANDS =      -166.08554977
  atomic energy  EATOM  =       588.61769381
  Solvation  Ediel_sol  =         0.00000000
  free energy    TOTEN  =       -36.91776956 eV

  energy without entropy =      -36.91776956  energy(sigma->0) =      -36.91776956

 average (electrostatic) potential at core
  the test charge radii are     0.6991
  (the norm of the test charge is              1.0000)
       1 -56.6349       2 -56.6349       3 -56.6349       4 -56.6349

 E-fermi :  -1.2198     XC(G=0):  -4.0276     alpha+bet : -3.8326

[...]

 k-point    48 :      -0.3333    0.3333    0.0000
  band No.  band energies     occupation
      1     -13.8306      2.00000
      2     -13.8305      2.00000
      3     -13.8247      2.00000
      4     -13.8246      2.00000
      5     -11.8206      2.00000
      6     -11.8161      2.00000
      7      -1.2618      2.00000
      8      -1.2618      2.00000
      9      -1.1668      0.00000
     10      -1.1668      0.00000
     11       9.0118      0.00000
     12       9.8558      0.00000

 soft charge-density along one line, spin component           1
         0         1         2         3         4         5         6         7         8         9
 total charge-density along one line

------------------------ aborting loop because EDIFF is reached ----------------------------------------

  FORCE on cell =-STRESS in cart. coord.  units (eV):
  Direction    XX          YY          ZZ          XY          YZ          ZX
  Alpha Z    12.44266    12.44266    12.44266
  Ewald    3012.30897  3012.30773 -3551.46440     0.00000     0.00000    -0.00000
  Hartree  2974.98914  2974.98913 -2952.45755    -0.00000     0.00000    -0.00000
  E(xc)     -58.45138   -58.45138   -60.79523    -0.00000     0.00000    -0.00000
  Local   -6165.73201 -6165.73140  6291.19979    -0.00000     0.00000    -0.00000
  n-local   -14.66661   -13.59600   -12.84970     0.71429    -0.00000    -0.00000
  augment    -1.56153    -1.56153    -1.42743     0.00000     0.00000     0.00000
  Kinetic   245.07539   236.87264   275.30718    -6.59682     0.00000     0.00000
  Fock        0.00000     0.00000     0.00000     0.00000     0.00000     0.00000
  Total       0.83826     0.83826    -0.04468     0.00000     0.00000     0.00000
  in kB      12.81826    12.81826    -0.68330     0.00000     0.00000     0.00000

 VOLUME and BASIS-vectors are now :
  energy-cutoff  :      800.00
  volume of cell :      104.78
      direct lattice vectors                 reciprocal lattice vectors
     2.130000000 -1.229756000  0.000000000     0.234741784 -0.406584721  0.000000000
     2.130000000  1.229756000  0.000000000     0.234741784  0.406584721  0.000000000
     0.000000000  0.000000000 20.000000000     0.000000000  0.000000000  0.050000000

  length of vectors
     2.459512110  2.459512110 20.000000000     0.469483589  0.469483589  0.050000000

 FORCES acting on ions
    electron-ion (+dipol)            ewald-force                    non-local-force                 convergence-correction
   0.199E-06 -.219E-12 0.307E+03   -.241E-03 0.665E-14 -.307E+03   -.572E-16 0.181E-16 -.127E-02   0.565E-15 0.133E-14 0.351E-06
   0.271E-03 0.636E-13 0.307E+03   0.241E-03 -.442E-14 -.307E+03   -.184E-16 0.607E-16 -.127E-02   -.108E-13 0.684E-16 0.351E-06
   0.193E-06 -.578E-14 -.307E+03   -.241E-03 0.670E-14 0.307E+03   -.292E-16 0.149E-16 0.127E-02   0.235E-14 0.859E-15 -.189E-05
   0.271E-03 -.484E-13 -.307E+03   0.241E-03 -.438E-14 0.307E+03   0.332E-16 0.130E-16 0.127E-02   -.152E-13 -.197E-16 -.189E-05
   0.542E-03 -.209E-12 0.312E-05   0.858E-14 0.456E-14 0.000E+00   -.716E-16 0.107E-15 -.272E-06   -.231E-13 0.224E-14 -.309E-05

 POSITION                                       TOTAL-FORCE (eV/Angst)
      0.00000      0.00000      0.00000         0.000000     -0.000000     -0.000000
      1.42000      0.00000      0.00000        -0.000000     -0.000000     -0.000000
      0.00000      0.00000      4.43868         0.000000      0.000000      0.000000
      1.42000      0.00000      4.43868        -0.000000     -0.000000      0.000000
    total drift:                                0.000542     -0.000000     -0.000000

  FREE ENERGIE OF THE ION-ELECTRON SYSTEM (eV)
  free  energy   TOTEN  =       -36.91776956 eV

  energy  without entropy=      -36.91776956  energy(sigma->0) =      -36.91776956

 d Force = 0.7430910E-13[-0.529E-14, 0.154E-12]  d Energy = 0.4320100E-11-0.425E-11
 d Force =-0.1295199E-02[-0.130E-02,-0.130E-02]  d Ewald  =-0.1295199E-02 0.136E-11

 reached required accuracy - stopping structural energy minimisation