 vasp.5.4.4.18Apr17-6-g9f103f2a35 (build May 31 2018 21:15:54) complex

 executed on          c7_intel_O1 date 2020.08.17  20:03:46

 INCAR:
 POTCAR:   PAW_PBE C 08Apr2002
 POTCAR:   PAW_PBE C 08Apr2002
   VRHFIN =C: s2p2

   TITEL  = PAW_PBE C 08Apr2002
   POMASS =   12.011; ZVAL   =    4.000    mass and valenz
   ENMAX  =  400.000; ENMIN  =  300.000 eV
   QCUT   =   -5.516; QGAM   =   11.032    optimization parameters

   Description
     l     E      TYP  RCUT    TYP  RCUT
     0   .000     23  1.200
     0   .000     23  1.200
     1   .000     23  1.500
     1  2.500     23  1.500
     2   .000      7  1.500

 PAW_PBE C 08Apr2002                    :

 POSCAR: C2_bilayer
  positions in direct lattice
  velocities in cartesian coordinates
 exchange correlation table for  LEXCH =        8
   RHO(1)=    0.500       N(1)  =     2000
   RHO(2)=  100.500       N(2)  =     4000

 ion  position               nearest neighbor table
   1  0.000  0.000  0.000-   2 1.42   2 1.42   2 1.42
   2  0.333  0.333  0.000-   1 1.42   1 1.42   1 1.42
   3  0.000  0.000  0.222-   4 1.42   4 1.42   4 1.42
   4  0.333  0.333  0.222-   3 1.42   3 1.42   3 1.42

  LATTYP: Found a hexagonal cell.
 ALAT       =     2.4595120000
 C/A-ratio  =     8.1316944174

  Lattice vectors:

 A1 = (   0.0000000000,  -2.4595120000,   0.0000000000)
 A2 = (  -2.1300000000,   1.2297560000,   0.0000000000)
 A3 = (   0.0000000000,   0.0000000000, -20.0000000000)

Analysis of symmetry for initial positions (statically):
 Subroutine PRICEL returns:
 Original cell was already a primitive cell.

 Routine SETGRP: Setting up the symmetry group for a
 hexagonal supercell.

 Subroutine GETGRP returns: Found 24 space group operations
 (whereof  6 operations were pure point group operations)
 out of a pool of 24 trial point group operations.

The static configuration has the point symmetry C_3v.
 The point group associated with its full space group is D_6h.

Analysis of symmetry for dynamics (positions and initial velocities):
 Subroutine PRICEL returns:
 Original cell was already a primitive cell.

[...]

The dynamic configuration has the point symmetry C_3v.
 The point group associated with its full space group is D_6h.

Analysis of constrained symmetry for selective dynamics:
 Subroutine PRICEL returns:
 Original cell was already a primitive cell.

 Routine SETGRP: Setting up the symmetry group for a
 hexagonal supercell.

 Subroutine GETGRP returns: Found 12 space group operations
 (whereof  6 operations were pure point group operations)
 out of a pool of 24 trial point group operations.

The constrained configuration has the point symmetry C_3v.
 The point group associated with its full space group is C_6v.

 Subroutine INISYM returns: Found 12 space group operations
 (whereof  6 operations are pure point group operations),
 and found     1 'primitive' translations

 KPOINTS: C-4

Automatic generation of k-mesh.
Space group operators:
 irot       det(A)        alpha          n_x          n_y          n_z        tau_x        tau_y        tau_z
    1     1.000000     0.000000     1.000000     0.000000     0.000000     0.000000     0.000000     0.000000
    2     1.000000   120.000000     0.000000     0.000000     1.000000     0.000000     0.000000     0.000000
    3     1.000000   120.000000     0.000000     0.000000    -1.000000     0.000000     0.000000     0.000000
    4    -1.000000   180.000000    -0.000000     1.000000     0.000000     0.000000     0.000000     0.000000
    5    -1.000000   180.000000     0.866025    -0.500000     0.000000     0.000000     0.000000     0.000000
    6    -1.000000   180.000000     0.866025     0.500000     0.000000     0.000000     0.000000     0.000000
    7     1.000000    60.000000     0.000000     0.000000     1.000000     0.333333    -0.666667     0.000000
    8     1.000000   180.000000     0.000000     0.000000     1.000000     0.333333    -0.666667     0.000000
    9     1.000000    60.000000     0.000000     0.000000    -1.000000     0.333333    -0.666667     0.000000
   10    -1.000000   180.000000     0.500000    -0.866025     0.000000     0.333333    -0.666667     0.000000
   11    -1.000000   180.000000     1.000000     0.000000     0.000000     0.333333    -0.666667     0.000000
   12    -1.000000   180.000000    -0.500000    -0.866025     0.000000     0.333333    -0.666667     0.000000

 Subroutine IBZKPT returns following result:

 Found    169 irreducible k-points:

 Following reciprocal coordinates:
            Coordinates               Weight
  0.000000  0.000000  0.000000      1.000000
  0.023810  0.000000  0.000000      6.000000
  0.047619  0.000000  0.000000      6.000000
  0.071429  0.000000  0.000000      6.000000
  0.095238  0.000000  0.000000      6.000000
  0.119048  0.000000  0.000000      6.000000
  0.142857  0.000000  0.000000      6.000000
  0.166667  0.000000  0.000000      6.000000
  0.190476  0.000000  0.000000      6.000000
  0.214286  0.000000  0.000000      6.000000
  0.238095  0.000000  0.000000      6.000000
  0.261905  0.000000  0.000000      6.000000
  0.285714  0.000000  0.000000      6.000000
  0.309524  0.000000  0.000000      6.000000
  0.333333  0.000000  0.000000      6.000000
  0.357143  0.000000  0.000000      6.000000
  0.380952  0.000000  0.000000      6.000000
  0.404762  0.000000  0.000000      6.000000
  0.428571  0.000000  0.000000      6.000000
  0.452381  0.000000  0.000000      6.000000
  0.476190  0.000000  0.000000      6.000000
  0.500000  0.000000  0.000000      3.000000
  0.047619  0.023810  0.000000      6.000000
  0.071429  0.023810  0.000000     12.000000
  0.095238  0.023810  0.000000     12.000000
  0.119048  0.023810  0.000000     12.000000
  0.142857  0.023810  0.000000     12.000000
  0.166667  0.023810  0.000000     12.000000
  0.190476  0.023810  0.000000     12.000000
  0.214286  0.023810  0.000000     12.000000
  0.238095  0.023810  0.000000     12.000000
  0.261905  0.023810  0.000000     12.000000
  0.285714  0.023810  0.000000     12.000000
  0.309524  0.023810  0.000000     12.000000
  0.333333  0.023810  0.000000     12.000000
  0.357143  0.023810  0.000000     12.000000
  0.380952  0.023810  0.000000     12.000000
  0.404762  0.023810  0.000000     12.000000
  0.428571  0.023810  0.000000     12.000000
  0.452381  0.023810  0.000000     12.000000
  0.476190  0.023810  0.000000     12.000000
  0.500000  0.023810  0.000000     12.000000
  0.095238  0.047619  0.000000      6.000000
  0.119048  0.047619  0.000000     12.000000
  0.142857  0.047619  0.000000     12.000000
  0.166667  0.047619  0.000000     12.000000
  0.190476  0.047619  0.000000     12.000000
  0.214286  0.047619  0.000000     12.000000
  0.238095  0.047619  0.000000     12.000000
  0.261905  0.047619  0.000000     12.000000
  0.285714  0.047619  0.000000     12.000000
  0.309524  0.047619  0.000000     12.000000
  0.333333  0.047619  0.000000     12.000000
  0.357143  0.047619  0.000000     12.000000
  0.380952  0.047619  0.000000     12.000000
  0.404762  0.047619  0.000000     12.000000
  0.428571  0.047619  0.000000     12.000000
  0.452381  0.047619  0.000000     12.000000
  0.476190  0.047619  0.000000     12.000000
  0.500000  0.047619  0.000000     12.000000
[...]
 -0.428571  0.238095  0.000000     12.000000
 -0.404762  0.238095  0.000000     12.000000
 -0.380952  0.238095  0.000000      6.000000
 -0.476190  0.261905  0.000000      6.000000
 -0.452381  0.261905  0.000000     12.000000
 -0.428571  0.261905  0.000000     12.000000
 -0.404762  0.261905  0.000000     12.000000
 -0.380952  0.261905  0.000000     12.000000
 -0.428571  0.285714  0.000000      6.000000
 -0.404762  0.285714  0.000000     12.000000
 -0.380952  0.285714  0.000000     12.000000
 -0.357143  0.285714  0.000000      6.000000
 -0.380952  0.309524  0.000000      6.000000
 -0.357143  0.309524  0.000000     12.000000
 -0.333333  0.333333  0.000000      2.000000

 Following cartesian coordinates:
            Coordinates               Weight
  0.000000  0.000000  0.000000      1.000000
  0.005589 -0.009681  0.000000      6.000000
  0.011178 -0.019361  0.000000      6.000000
  0.016767 -0.029042  0.000000      6.000000
  0.022356 -0.038722  0.000000      6.000000
  0.027945 -0.048403  0.000000      6.000000
  0.033535 -0.058084  0.000000      6.000000
  0.039124 -0.067764  0.000000      6.000000
  0.044713 -0.077445  0.000000      6.000000
  0.050302 -0.087125  0.000000      6.000000
  0.055891 -0.096806  0.000000      6.000000
  0.061480 -0.106486  0.000000      6.000000
  0.067069 -0.116167  0.000000      6.000000
  0.072658 -0.125848  0.000000      6.000000
  0.078247 -0.135528  0.000000      6.000000
  0.083836 -0.145209  0.000000      6.000000
  0.089425 -0.154889  0.000000      6.000000
  0.095015 -0.164570  0.000000      6.000000
  0.100604 -0.174251  0.000000      6.000000
  0.106193 -0.183931  0.000000      6.000000
  0.111782 -0.193612  0.000000      6.000000
  0.117371 -0.203292  0.000000      3.000000
  0.016767 -0.009681  0.000000      6.000000
  0.022356 -0.019361  0.000000     12.000000
  0.027945 -0.029042  0.000000     12.000000
  0.033535 -0.038722  0.000000     12.000000
  0.039124 -0.048403  0.000000     12.000000
  0.044713 -0.058084  0.000000     12.000000
  0.050302 -0.067764  0.000000     12.000000
  0.055891 -0.077445  0.000000     12.000000
  0.061480 -0.087125  0.000000     12.000000
  0.067069 -0.096806  0.000000     12.000000
  0.072658 -0.106486  0.000000     12.000000
  0.078247 -0.116167  0.000000     12.000000
  0.083836 -0.125848  0.000000     12.000000
  0.089425 -0.135528  0.000000     12.000000
  0.095015 -0.145209  0.000000     12.000000
  0.100604 -0.154889  0.000000     12.000000
  0.106193 -0.164570  0.000000     12.000000
  0.111782 -0.174251  0.000000     12.000000
  0.117371 -0.183931  0.000000     12.000000
  0.122960 -0.193612  0.000000     12.000000
  0.033535 -0.019361  0.000000      6.000000
  0.039124 -0.029042  0.000000     12.000000
  0.044713 -0.038722  0.000000     12.000000
  0.050302 -0.048403  0.000000     12.000000
  0.055891 -0.058084  0.000000     12.000000
  0.061480 -0.067764  0.000000     12.000000
  0.067069 -0.077445  0.000000     12.000000
  0.072658 -0.087125  0.000000     12.000000
  0.078247 -0.096806  0.000000     12.000000
  0.083836 -0.106486  0.000000     12.000000
  0.089425 -0.116167  0.000000     12.000000
  0.095015 -0.125848  0.000000     12.000000
  0.100604 -0.135528  0.000000     12.000000
  0.106193 -0.145209  0.000000     12.000000
  0.111782 -0.154889  0.000000     12.000000
  0.117371 -0.164570  0.000000     12.000000
  0.122960 -0.174251  0.000000     12.000000
  0.128549 -0.183931  0.000000     12.000000
[...]
 -0.044713  0.271056  0.000000     12.000000
 -0.039124  0.261376  0.000000     12.000000
 -0.033535  0.251695  0.000000      6.000000
 -0.050302  0.300098  0.000000      6.000000
 -0.044713  0.290418  0.000000     12.000000
 -0.039124  0.280737  0.000000     12.000000
 -0.033535  0.271056  0.000000     12.000000
 -0.027945  0.261376  0.000000     12.000000
 -0.033535  0.290418  0.000000      6.000000
 -0.027945  0.280737  0.000000     12.000000
 -0.022356  0.271056  0.000000     12.000000
[...]
 k-point  4 :   0.0714 0.0000 0.0000  plane waves:    5415
 k-point  5 :   0.0952 0.0000 0.0000  plane waves:    5402
 k-point  6 :   0.1190 0.0000 0.0000  plane waves:    5406
 k-point  7 :   0.1429 0.0000 0.0000  plane waves:    5398
 k-point  8 :   0.1667 0.0000 0.0000  plane waves:    5394
 k-point  9 :   0.1905 0.0000 0.0000  plane waves:    5404
 k-point 10 :   0.2143 0.0000 0.0000  plane waves:    5410
 k-point 11 :   0.2381 0.0000 0.0000  plane waves:    5408
 k-point 12 :   0.2619 0.0000 0.0000  plane waves:    5402
 k-point 13 :   0.2857 0.0000 0.0000  plane waves:    5404
 k-point 14 :   0.3095 0.0000 0.0000  plane waves:    5394
 k-point 15 :   0.3333 0.0000 0.0000  plane waves:    5394
 k-point 16 :   0.3571 0.0000 0.0000  plane waves:    5390
 k-point 17 :   0.3810 0.0000 0.0000  plane waves:    5382
 k-point 18 :   0.4048 0.0000 0.0000  plane waves:    5382
 k-point 19 :   0.4286 0.0000 0.0000  plane waves:    5396
 k-point 20 :   0.4524 0.0000 0.0000  plane waves:    5390
 k-point 21 :   0.4762 0.0000 0.0000  plane waves:    5380
 k-point 22 :   0.5000 0.0000 0.0000  plane waves:    5384
 k-point 23 :   0.0476 0.0238 0.0000  plane waves:    5403
 k-point 24 :   0.0714 0.0238 0.0000  plane waves:    5411
 k-point 25 :   0.0952 0.0238 0.0000  plane waves:    5401
 k-point 26 :   0.1190 0.0238 0.0000  plane waves:    5406
 k-point 27 :   0.1429 0.0238 0.0000  plane waves:    5404
 k-point 28 :   0.1667 0.0238 0.0000  plane waves:    5403
 k-point 29 :   0.1905 0.0238 0.0000  plane waves:    5397
 k-point 30 :   0.2143 0.0238 0.0000  plane waves:    5399
 k-point 31 :   0.2381 0.0238 0.0000  plane waves:    5400
 k-point 32 :   0.2619 0.0238 0.0000  plane waves:    5404
 k-point 33 :   0.2857 0.0238 0.0000  plane waves:    5404
 k-point 34 :   0.3095 0.0238 0.0000  plane waves:    5402
 k-point 35 :   0.3333 0.0238 0.0000  plane waves:    5383
 k-point 36 :   0.3571 0.0238 0.0000  plane waves:    5372
 k-point 37 :   0.3810 0.0238 0.0000  plane waves:    5386
 k-point 38 :   0.4048 0.0238 0.0000  plane waves:    5380
 k-point 39 :   0.4286 0.0238 0.0000  plane waves:    5394
 k-point 40 :   0.4524 0.0238 0.0000  plane waves:    5396
 k-point 41 :   0.4762 0.0238 0.0000  plane waves:    5391
 k-point 42 :   0.5000 0.0238 0.0000  plane waves:    5385
 k-point 43 :   0.0952 0.0476 0.0000  plane waves:    5411
 k-point 44 :   0.1190 0.0476 0.0000  plane waves:    5406
 k-point 45 :   0.1429 0.0476 0.0000  plane waves:    5415
 k-point 46 :   0.1667 0.0476 0.0000  plane waves:    5407
 k-point 47 :   0.1905 0.0476 0.0000  plane waves:    5413
 k-point 48 :   0.2143 0.0476 0.0000  plane waves:    5409
 k-point 49 :   0.2381 0.0476 0.0000  plane waves:    5399
 k-point 50 :   0.2619 0.0476 0.0000  plane waves:    5403
 k-point 51 :   0.2857 0.0476 0.0000  plane waves:    5396
 k-point 52 :   0.3095 0.0476 0.0000  plane waves:    5394
 k-point 53 :   0.3333 0.0476 0.0000  plane waves:    5389
 k-point 54 :   0.3571 0.0476 0.0000  plane waves:    5372
 k-point 55 :   0.3810 0.0476 0.0000  plane waves:    5378
 k-point 56 :   0.4048 0.0476 0.0000  plane waves:    5374
 k-point 57 :   0.4286 0.0476 0.0000  plane waves:    5381
 k-point 58 :   0.4524 0.0476 0.0000  plane waves:    5386
 k-point 59 :   0.4762 0.0476 0.0000  plane waves:    5391
 k-point 60 :   0.5000 0.0476 0.0000  plane waves:    5387
[...]
 k-point 85 :   0.3333 0.0952 0.0000  plane waves:    5384
 k-point 86 :   0.3571 0.0952 0.0000  plane waves:    5380
 k-point 87 :   0.3810 0.0952 0.0000  plane waves:    5369
 k-point 88 :   0.4048 0.0952 0.0000  plane waves:    5361
 k-point 89 :   0.4286 0.0952 0.0000  plane waves:    5364
 k-point 90 :   0.4524 0.0952 0.0000  plane waves:    5378
 k-point 91 :   0.4762 0.0952 0.0000  plane waves:    5382
 k-point 92 :   0.5000 0.0952 0.0000  plane waves:    5394
 k-point 93 :  -0.4762 0.0952 0.0000  plane waves:    5404
 k-point 94 :  -0.4524 0.0952 0.0000  plane waves:    5398
 k-point 95 :   0.2381 0.1190 0.0000  plane waves:    5405
 k-point 96 :   0.2619 0.1190 0.0000  plane waves:    5403
 k-point 97 :   0.2857 0.1190 0.0000  plane waves:    5401
 k-point 98 :   0.3095 0.1190 0.0000  plane waves:    5403
 k-point 99 :   0.3333 0.1190 0.0000  plane waves:    5388
 k-point ** :   0.3571 0.1190 0.0000  plane waves:    5390
 k-point ** :   0.3810 0.1190 0.0000  plane waves:    5379
 k-point ** :   0.4048 0.1190 0.0000  plane waves:    5359
 k-point ** :   0.4286 0.1190 0.0000  plane waves:    5351
 k-point ** :   0.4524 0.1190 0.0000  plane waves:    5363
 k-point ** :   0.4762 0.1190 0.0000  plane waves:    5382
 k-point ** :   0.5000 0.1190 0.0000  plane waves:    5375
 k-point ** :  -0.4762 0.1190 0.0000  plane waves:    5386
 k-point ** :  -0.4524 0.1190 0.0000  plane waves:    5396
 k-point ** :   0.2857 0.1429 0.0000  plane waves:    5405
 k-point ** :   0.3095 0.1429 0.0000  plane waves:    5401
 k-point ** :   0.3333 0.1429 0.0000  plane waves:    5404
 k-point ** :   0.3571 0.1429 0.0000  plane waves:    5390
 k-point ** :   0.3810 0.1429 0.0000  plane waves:    5382
 k-point ** :   0.4048 0.1429 0.0000  plane waves:    5367
 k-point ** :   0.4286 0.1429 0.0000  plane waves:    5347
 k-point ** :   0.4524 0.1429 0.0000  plane waves:    5358
 k-point ** :   0.4762 0.1429 0.0000  plane waves:    5367
 k-point ** :   0.5000 0.1429 0.0000  plane waves:    5379
 k-point ** :  -0.4762 0.1429 0.0000  plane waves:    5376
 k-point ** :  -0.4524 0.1429 0.0000  plane waves:    5384
 k-point ** :  -0.4286 0.1429 0.0000  plane waves:    5400
 k-point ** :   0.3333 0.1667 0.0000  plane waves:    5400
 k-point ** :   0.3571 0.1667 0.0000  plane waves:    5402
 k-point ** :   0.3810 0.1667 0.0000  plane waves:    5386
 k-point ** :   0.4048 0.1667 0.0000  plane waves:    5369
 k-point ** :   0.4286 0.1667 0.0000  plane waves:    5354
 k-point ** :   0.4524 0.1667 0.0000  plane waves:    5360
 k-point ** :   0.4762 0.1667 0.0000  plane waves:    5361
 k-point ** :   0.5000 0.1667 0.0000  plane waves:    5371
 k-point ** :  -0.4762 0.1667 0.0000  plane waves:    5374
 k-point ** :  -0.4524 0.1667 0.0000  plane waves:    5379
 k-point ** :  -0.4286 0.1667 0.0000  plane waves:    5384
 k-point ** :   0.3810 0.1905 0.0000  plane waves:    5390
 k-point ** :   0.4048 0.1905 0.0000  plane waves:    5379
 k-point ** :   0.4286 0.1905 0.0000  plane waves:    5358
 k-point ** :   0.4524 0.1905 0.0000  plane waves:    5357
 k-point ** :   0.4762 0.1905 0.0000  plane waves:    5365
 k-point ** :   0.5000 0.1905 0.0000  plane waves:    5371
 k-point ** :  -0.4762 0.1905 0.0000  plane waves:    5363
 k-point ** :  -0.4524 0.1905 0.0000  plane waves:    5368
 k-point ** :  -0.4286 0.1905 0.0000  plane waves:    5377
 k-point ** :  -0.4048 0.1905 0.0000  plane waves:    5364
 k-point ** :   0.4286 0.2143 0.0000  plane waves:    5360
 k-point ** :   0.4524 0.2143 0.0000  plane waves:    5360
 k-point ** :   0.4762 0.2143 0.0000  plane waves:    5371
 k-point ** :   0.5000 0.2143 0.0000  plane waves:    5367
 k-point ** :  -0.4762 0.2143 0.0000  plane waves:    5369
 k-point ** :  -0.4524 0.2143 0.0000  plane waves:    5358
 k-point ** :  -0.4286 0.2143 0.0000  plane waves:    5359
 k-point ** :  -0.4048 0.2143 0.0000  plane waves:    5376
 k-point ** :   0.4762 0.2381 0.0000  plane waves:    5364
 k-point ** :   0.5000 0.2381 0.0000  plane waves:    5367
 k-point ** :  -0.4762 0.2381 0.0000  plane waves:    5368
 k-point ** :  -0.4524 0.2381 0.0000  plane waves:    5356
 k-point ** :  -0.4286 0.2381 0.0000  plane waves:    5360
 k-point ** :  -0.4048 0.2381 0.0000  plane waves:    5363
 k-point ** :  -0.3810 0.2381 0.0000  plane waves:    5366
 k-point ** :  -0.4762 0.2619 0.0000  plane waves:    5368
 k-point ** :  -0.4524 0.2619 0.0000  plane waves:    5364
 k-point ** :  -0.4286 0.2619 0.0000  plane waves:    5358
 k-point ** :  -0.4048 0.2619 0.0000  plane waves:    5350
 k-point ** :  -0.3810 0.2619 0.0000  plane waves:    5349
 k-point ** :  -0.4286 0.2857 0.0000  plane waves:    5362
 k-point ** :  -0.4048 0.2857 0.0000  plane waves:    5344
 k-point ** :  -0.3810 0.2857 0.0000  plane waves:    5326
 k-point ** :  -0.3571 0.2857 0.0000  plane waves:    5328
 k-point ** :  -0.3810 0.3095 0.0000  plane waves:    5342
 k-point ** :  -0.3571 0.3095 0.0000  plane waves:    5333
 k-point ** :  -0.3333 0.3333 0.0000  plane waves:    5334

 maximum and minimum number of plane-waves per node :       928      873

 maximum number of plane-waves:      5425
 maximum index in each direction:
   IXMAX=    6   IYMAX=    5   IZMAX=   46
   IXMIN=   -6   IYMIN=   -5   IZMIN=  -46

 parallel 3D FFT for wavefunctions:
    minimum data exchange during FFTs selected (reduces bandwidth)
 parallel 3D FFT for charge:
    minimum data exchange during FFTs selected (reduces bandwidth)

 Broyden mixing: mesh for mixing (old mesh)
   NGX = 11   NGY = 11   NGZ = 93
  (NGX  = 48   NGY  = 48   NGZ  =384)
  gives a total of  11253 points

 initial charge density was supplied:
 number of electron      16.0000000 magnetization
 keeping initial charge density in first step

 Maximum index for augmentation-charges         3270 (set IRDMAX)

 First call to EWALD:  gamma=   0.376
 Maximum number of real-space cells 5x 5x 1
 Maximum number of reciprocal cells 2x 2x10

--------------------------------------- Iteration      1(   1)  ---------------------------------------

 eigenvalue-minimisations  :  4056
 total energy-change (2. order) : 0.9507457E+02  (-0.8499256E+03)
 number of electron      16.0000000 magnetization
 augmentation part       16.0000000 magnetization

 Free energy of the ion-electron system (eV)
  alpha Z        PSCENC =        12.44266281
  Ewald energy   TEWEN  =      2473.15002607
  -Hartree energ DENC   =     -2997.52072889
  -exchange      EXHF   =         0.00000000
  -V(xc)+E(xc)   XCENC  =        57.63646916
  PAW double counting   =       279.83967470     -285.00068887
  entropy T*S    EENTRO =        -0.00569973
  eigenvalues    EBANDS =       -34.08483694
  atomic energy  EATOM  =       588.61769381
  Solvation  Ediel_sol  =         0.00000000
  free energy    TOTEN  =        95.07457213 eV

  energy without entropy =       95.08027186  energy(sigma->0) =       95.07742199

[...]

 eigenvalue-minimisations  :  6840
 total energy-change (2. order) :-0.1255861E+03  (-0.1158864E+03)
 number of electron      16.0000000 magnetization
 augmentation part       16.0000000 magnetization

[...]

 Broyden mixing:
  rms(total) = 0.71919E-04    rms(broyden)= 0.71906E-04
  rms(prec ) = 0.11783E-03
  weight for this iteration     100.00

[...]

 eigenvalues of (default mixing * dielectric matrix)
  average eigenvalue GAMMA=   1.1986
  1.1986

[...]

 eigenvalue-minimisations  :  6012
 total energy-change (2. order) :-0.1824424E-07  (-0.1465369E-09)
 number of electron      16.0000000 magnetization
 augmentation part        0.3849116 magnetization

 Broyden mixing:
  rms(total) = 0.15883E-05    rms(broyden)= 0.15388E-05
  rms(prec ) = 0.35827E-05
  weight for this iteration     100.00

 eigenvalues of (default mixing * dielectric matrix)
  average eigenvalue GAMMA=   2.7167
  7.8494  3.7624  2.7870  2.7870  1.5971  1.0193  0.9658  0.9658

[...]

--------------------------------------- Iteration      1(  14)  ---------------------------------------

 eigenvalue-minimisations  :  5988
 total energy-change (2. order) : 0.8209781E-08  (-0.1234489E-09)
 number of electron      16.0000000 magnetization
 augmentation part        0.3849116 magnetization

 Free energy of the ion-electron system (eV)
  alpha Z        PSCENC =        12.44266281
  Ewald energy   TEWEN  =      2473.15002607
  -Hartree energ DENC   =     -2997.51894711
  -exchange      EXHF   =         0.00000000
  -V(xc)+E(xc)   XCENC  =        57.63670979
  PAW double counting   =       279.84145194     -285.00246074
  entropy T*S    EENTRO =        -0.00020422
  eigenvalues    EBANDS =      -166.08666237
  atomic energy  EATOM  =       588.61769381
  Solvation  Ediel_sol  =         0.00000000
  free energy    TOTEN  =       -36.91973002 eV

  energy without entropy =      -36.91952580  energy(sigma->0) =      -36.91962791

 average (electrostatic) potential at core
  the test charge radii are     0.6991
  (the norm of the test charge is              1.0000)
       1 -56.6348       2 -56.6348       3 -56.6348       4 -56.6348

 E-fermi :  -1.2143     XC(G=0):  -4.0228     alpha+bet : -3.8326

 k-point     1 :       0.0000    0.0000    0.0000
  band No.  band energies     occupation
      1     -20.7948      2.00000
      2     -20.7831      2.00000
      3      -8.9733      2.00000
      4      -8.7915      2.00000
      5      -4.2421      2.00000
      6      -4.2420      2.00000
      7      -4.2416      2.00000
      8      -4.2415      2.00000
      9       1.9311      0.00000
     10       2.4902      0.00000
     11       3.1231      0.00000
     12       4.0115      0.00000

[...]

 k-point   169 :      -0.3333    0.3333    0.0000
  band No.  band energies     occupation
      1     -13.8305      2.00000
      2     -13.8305      2.00000
      3     -13.8246      2.00000
      4     -13.8246      2.00000
      5     -11.8206      2.00000
      6     -11.8161      2.00000
      7      -1.2618      1.49828
      8      -1.2618      1.49804
      9      -1.1668      0.50196
     10      -1.1668      0.50172
     11       9.0114      0.00000
     12       9.8558      0.00000

 soft charge-density along one line, spin component           1
         0         1         2         3         4         5         6         7         8         9
 total charge-density along one line

------------------------ aborting loop because EDIFF is reached ----------------------------------------

  FORCE on cell =-STRESS in cart. coord.  units (eV):
  Direction    XX          YY          ZZ          XY          YZ          ZX
  Alpha Z    12.44266    12.44266    12.44266
  Ewald    3012.30630  3012.30506 -3551.46173     0.00000    -0.00000     0.00000
  Hartree  2974.98680  2974.98679 -2952.45507    -0.00000     0.00000     0.00000
  E(xc)     -58.45161   -58.45161   -60.79549    -0.00000     0.00000    -0.00000
  Local   -6165.72763 -6165.72702  6291.19502    -0.00000    -0.00000    -0.00000
  n-local   -14.67841   -13.58456   -12.84993     0.71871     0.00000     0.00000
  augment    -1.56154    -1.56155    -1.42744     0.00000    -0.00000    -0.00000
  Kinetic   245.14818   236.79387   275.31345    -6.69748    -0.00000    -0.00000
  Fock        0.00000     0.00000     0.00000     0.00000     0.00000     0.00000
  Total       0.83421     0.83421    -0.03852     0.00000    -0.00000     0.00000
  in kB      12.75633    12.75633    -0.58907     0.00000    -0.00000     0.00000

 VOLUME and BASIS-vectors are now :
  energy-cutoff  :      800.00
  volume of cell :      104.78
      direct lattice vectors                 reciprocal lattice vectors
     2.130000000 -1.229756000  0.000000000     0.234741784 -0.406584721  0.000000000
     2.130000000  1.229756000  0.000000000     0.234741784  0.406584721  0.000000000
     0.000000000  0.000000000 20.000000000     0.000000000  0.000000000  0.050000000

  length of vectors
     2.459512110  2.459512110 20.000000000     0.469483589  0.469483589  0.050000000

 FORCES acting on ions
    electron-ion (+dipol)            ewald-force                    non-local-force                 convergence-correction
   0.199E-06 0.196E-12 0.307E+03   -.241E-03 0.693E-14 -.307E+03   0.583E-16 0.309E-16 -.156E-02   0.572E-11 0.351E-14 0.258E-04
   0.271E-03 -.189E-12 0.307E+03   0.241E-03 -.456E-14 -.307E+03   0.402E-16 0.691E-16 -.156E-02   -.305E-10 0.838E-15 0.258E-04
   0.193E-06 -.149E-12 -.307E+03   -.241E-03 0.683E-14 0.307E+03   0.156E-16 -.450E-16 0.155E-02   -.231E-11 -.909E-15 0.130E-04
   0.271E-03 0.476E-12 -.307E+03   0.241E-03 -.465E-14 0.307E+03   -.851E-16 -.363E-16 0.155E-02   -.275E-11 0.144E-14 0.130E-04
   0.542E-03 0.334E-12 -.638E-04   0.858E-14 0.456E-14 0.000E+00   0.290E-16 0.187E-16 -.120E-04   -.299E-10 0.488E-14 0.776E-04

 POSITION                                       TOTAL-FORCE (eV/Angst)
      0.00000      0.00000      0.00000         0.000000     -0.000000     -0.000695
      1.42000      0.00000      0.00000        -0.000000      0.000000     -0.000695
      0.00000      0.00000      4.43868        -0.000000     -0.000000      0.000695
      1.42000      0.00000      4.43868         0.000000      0.000000      0.000695
    total drift:                                0.000542      0.000000      0.000002

  FREE ENERGIE OF THE ION-ELECTRON SYSTEM (eV)
  free  energy   TOTEN  =       -36.91973002 eV

  energy  without entropy=      -36.91952580  energy(sigma->0) =      -36.91962791