 vasp.5.4.4.18Apr17-6-g9f103f2a35 (build May 31 2018 21:15:54) complex

 executed on          c7_intel_O1 date 2020.08.11  21:52:42

 INCAR:
 POTCAR:   PAW_PBE C 08Apr2002
 POTCAR:   PAW_PBE C 08Apr2002
   VRHFIN =C: s2p2

   TITEL  = PAW_PBE C 08Apr2002
   POMASS =   12.011; ZVAL   =    4.000    mass and valenz
   ENMAX  =  400.000; ENMIN  =  300.000 eV
   QCUT   =   -5.516; QGAM   =   11.032    optimization parameters

   Description
     l     E      TYP  RCUT    TYP  RCUT
     0   .000     23  1.200
     0   .000     23  1.200
     1   .000     23  1.500
     1  2.500     23  1.500
     2   .000      7  1.500

 PAW_PBE C 08Apr2002                    :

 POSCAR: C2
  positions in direct lattice
  velocities in cartesian coordinates
 exchange correlation table for  LEXCH =        8
   RHO(1)=    0.500       N(1)  =     2000
   RHO(2)=  100.500       N(2)  =     4000

 ion  position               nearest neighbor table
   1  0.000  0.000  0.000-   2 1.42   2 1.42   2 1.42
   2  0.333  0.333  0.000-   1 1.42   1 1.42   1 1.42

  LATTYP: Found a hexagonal cell.
 ALAT       =     2.4595120000
 C/A-ratio  =     8.1316944174

  Lattice vectors:

 A1 = (   0.0000000000,  -2.4595120000,   0.0000000000)
 A2 = (  -2.1300000000,   1.2297560000,   0.0000000000)
 A3 = (   0.0000000000,   0.0000000000, -20.0000000000)

Analysis of symmetry for initial positions (statically):
 Subroutine PRICEL returns:
 Original cell was already a primitive cell.

 Routine SETGRP: Setting up the symmetry group for a
 hexagonal supercell.

 Subroutine GETGRP returns: Found 24 space group operations
 (whereof 12 operations were pure point group operations)
 out of a pool of 24 trial point group operations.

The static configuration has the point symmetry D_3h.
 The point group associated with its full space group is D_6h.

Analysis of symmetry for dynamics (positions and initial velocities):
 Subroutine PRICEL returns:
 Original cell was already a primitive cell.

 Routine SETGRP: Setting up the symmetry group for a
 hexagonal supercell.

 Subroutine GETGRP returns: Found 24 space group operations
 (whereof 12 operations were pure point group operations)
 out of a pool of 24 trial point group operations.

The dynamic configuration has the point symmetry D_3h.
 The point group associated with its full space group is D_6h.

 Subroutine INISYM returns: Found 24 space group operations
 (whereof 12 operations are pure point group operations),
 and found     1 'primitive' translations

 KPOINTS: C-2

Automatic generation of k-mesh.
Space group operators:
 irot       det(A)        alpha          n_x          n_y          n_z        tau_x        tau_y        tau_z
    1     1.000000     0.000000     1.000000     0.000000     0.000000     0.000000     0.000000     0.000000
    2    -1.000000    60.000000     0.000000     0.000000     1.000000     0.000000     0.000000     0.000000
    3     1.000000   120.000000     0.000000     0.000000     1.000000     0.000000     0.000000     0.000000
    4    -1.000000   180.000000     0.000000     0.000000     1.000000     0.000000     0.000000     0.000000
    5     1.000000   120.000000     0.000000     0.000000    -1.000000     0.000000     0.000000     0.000000
    6    -1.000000    60.000000     0.000000     0.000000    -1.000000     0.000000     0.000000     0.000000
    7    -1.000000   180.000000    -0.000000     1.000000     0.000000     0.000000     0.000000     0.000000
    8     1.000000   180.000000     0.500000    -0.866025     0.000000     0.000000     0.000000     0.000000
    9    -1.000000   180.000000     0.866025    -0.500000     0.000000     0.000000     0.000000     0.000000
   10     1.000000   180.000000     1.000000     0.000000     0.000000     0.000000     0.000000     0.000000
   11    -1.000000   180.000000     0.866025     0.500000     0.000000     0.000000     0.000000     0.000000
   12     1.000000   180.000000    -0.500000    -0.866025     0.000000     0.000000     0.000000     0.000000
   13    -1.000000     0.000000     1.000000     0.000000     0.000000     0.333333    -0.666667     0.000000
   14     1.000000    60.000000     0.000000     0.000000     1.000000     0.333333    -0.666667     0.000000
   15    -1.000000   120.000000     0.000000     0.000000     1.000000     0.333333    -0.666667     0.000000
   16     1.000000   180.000000     0.000000     0.000000     1.000000     0.333333    -0.666667     0.000000
   17    -1.000000   120.000000     0.000000     0.000000    -1.000000     0.333333    -0.666667     0.000000
   18     1.000000    60.000000     0.000000     0.000000    -1.000000     0.333333    -0.666667     0.000000
   19     1.000000   180.000000    -0.000000     1.000000     0.000000     0.333333    -0.666667     0.000000
   20    -1.000000   180.000000     0.500000    -0.866025     0.000000     0.333333    -0.666667     0.000000
   21     1.000000   180.000000     0.866025    -0.500000     0.000000     0.333333    -0.666667     0.000000
   22    -1.000000   180.000000     1.000000     0.000000     0.000000     0.333333    -0.666667     0.000000
   23     1.000000   180.000000     0.866025     0.500000     0.000000     0.333333    -0.666667     0.000000
   24    -1.000000   180.000000    -0.500000    -0.866025     0.000000     0.333333    -0.666667     0.000000

 Subroutine IBZKPT returns following result:

 Found    169 irreducible k-points:

 Following reciprocal coordinates:
            Coordinates               Weight
  0.000000  0.000000  0.000000      1.000000
  0.023810  0.000000  0.000000      6.000000
  0.047619  0.000000  0.000000      6.000000
  0.071429  0.000000  0.000000      6.000000
  0.095238  0.000000  0.000000      6.000000
  0.119048  0.000000  0.000000      6.000000
  0.142857  0.000000  0.000000      6.000000
  0.166667  0.000000  0.000000      6.000000
  0.190476  0.000000  0.000000      6.000000
  0.214286  0.000000  0.000000      6.000000
  0.238095  0.000000  0.000000      6.000000
  0.261905  0.000000  0.000000      6.000000
  0.285714  0.000000  0.000000      6.000000
  0.309524  0.000000  0.000000      6.000000
  0.333333  0.000000  0.000000      6.000000
  0.357143  0.000000  0.000000      6.000000
  0.380952  0.000000  0.000000      6.000000
  0.404762  0.000000  0.000000      6.000000
  0.428571  0.000000  0.000000      6.000000
  0.452381  0.000000  0.000000      6.000000
  0.476190  0.000000  0.000000      6.000000
  0.500000  0.000000  0.000000      3.000000
  0.047619  0.023810  0.000000      6.000000
  0.071429  0.023810  0.000000     12.000000
  0.095238  0.023810  0.000000     12.000000
  0.119048  0.023810  0.000000     12.000000
  0.142857  0.023810  0.000000     12.000000
  0.166667  0.023810  0.000000     12.000000
  0.190476  0.023810  0.000000     12.000000
  0.214286  0.023810  0.000000     12.000000
  0.238095  0.023810  0.000000     12.000000
  0.261905  0.023810  0.000000     12.000000
  0.285714  0.023810  0.000000     12.000000
  0.309524  0.023810  0.000000     12.000000
  0.333333  0.023810  0.000000     12.000000
  0.357143  0.023810  0.000000     12.000000
  0.380952  0.023810  0.000000     12.000000
  0.404762  0.023810  0.000000     12.000000
  0.428571  0.023810  0.000000     12.000000
  0.452381  0.023810  0.000000     12.000000
  0.476190  0.023810  0.000000     12.000000
  0.500000  0.023810  0.000000     12.000000
  0.095238  0.047619  0.000000      6.000000
  0.119048  0.047619  0.000000     12.000000
  0.142857  0.047619  0.000000     12.000000
  0.166667  0.047619  0.000000     12.000000
  0.190476  0.047619  0.000000     12.000000
  0.214286  0.047619  0.000000     12.000000
  0.238095  0.047619  0.000000     12.000000
  0.261905  0.047619  0.000000     12.000000
  0.285714  0.047619  0.000000     12.000000
  0.309524  0.047619  0.000000     12.000000
  0.333333  0.047619  0.000000     12.000000
  0.357143  0.047619  0.000000     12.000000
  0.380952  0.047619  0.000000     12.000000
  0.404762  0.047619  0.000000     12.000000
  0.428571  0.047619  0.000000     12.000000
  0.452381  0.047619  0.000000     12.000000
  0.476190  0.047619  0.000000     12.000000
  0.500000  0.047619  0.000000     12.000000
[...]
 -0.428571  0.238095  0.000000     12.000000
 -0.404762  0.238095  0.000000     12.000000
 -0.380952  0.238095  0.000000      6.000000
 -0.476190  0.261905  0.000000      6.000000
 -0.452381  0.261905  0.000000     12.000000
 -0.428571  0.261905  0.000000     12.000000
 -0.404762  0.261905  0.000000     12.000000
 -0.380952  0.261905  0.000000     12.000000
 -0.428571  0.285714  0.000000      6.000000
 -0.404762  0.285714  0.000000     12.000000
 -0.380952  0.285714  0.000000     12.000000
 -0.357143  0.285714  0.000000      6.000000
 -0.380952  0.309524  0.000000      6.000000
 -0.357143  0.309524  0.000000     12.000000
 -0.333333  0.333333  0.000000      2.000000

 Following cartesian coordinates:
            Coordinates               Weight
  0.000000  0.000000  0.000000      1.000000
  0.005589 -0.009681  0.000000      6.000000
  0.011178 -0.019361  0.000000      6.000000
  0.016767 -0.029042  0.000000      6.000000
  0.022356 -0.038722  0.000000      6.000000
  0.027945 -0.048403  0.000000      6.000000
  0.033535 -0.058084  0.000000      6.000000
  0.039124 -0.067764  0.000000      6.000000
  0.044713 -0.077445  0.000000      6.000000
  0.050302 -0.087125  0.000000      6.000000
  0.055891 -0.096806  0.000000      6.000000
  0.061480 -0.106486  0.000000      6.000000
  0.067069 -0.116167  0.000000      6.000000
  0.072658 -0.125848  0.000000      6.000000
  0.078247 -0.135528  0.000000      6.000000
  0.083836 -0.145209  0.000000      6.000000
  0.089425 -0.154889  0.000000      6.000000
  0.095015 -0.164570  0.000000      6.000000
  0.100604 -0.174251  0.000000      6.000000
  0.106193 -0.183931  0.000000      6.000000
  0.111782 -0.193612  0.000000      6.000000
  0.117371 -0.203292  0.000000      3.000000
  0.016767 -0.009681  0.000000      6.000000
  0.022356 -0.019361  0.000000     12.000000
  0.027945 -0.029042  0.000000     12.000000
  0.033535 -0.038722  0.000000     12.000000
  0.039124 -0.048403  0.000000     12.000000
  0.044713 -0.058084  0.000000     12.000000
  0.050302 -0.067764  0.000000     12.000000
  0.055891 -0.077445  0.000000     12.000000
  0.061480 -0.087125  0.000000     12.000000
  0.067069 -0.096806  0.000000     12.000000
  0.072658 -0.106486  0.000000     12.000000
  0.078247 -0.116167  0.000000     12.000000
  0.083836 -0.125848  0.000000     12.000000
  0.089425 -0.135528  0.000000     12.000000
  0.095015 -0.145209  0.000000     12.000000
  0.100604 -0.154889  0.000000     12.000000
  0.106193 -0.164570  0.000000     12.000000
  0.111782 -0.174251  0.000000     12.000000
  0.117371 -0.183931  0.000000     12.000000
  0.122960 -0.193612  0.000000     12.000000
  0.033535 -0.019361  0.000000      6.000000
  0.039124 -0.029042  0.000000     12.000000
  0.044713 -0.038722  0.000000     12.000000
  0.050302 -0.048403  0.000000     12.000000
  0.055891 -0.058084  0.000000     12.000000
  0.061480 -0.067764  0.000000     12.000000
  0.067069 -0.077445  0.000000     12.000000
  0.072658 -0.087125  0.000000     12.000000
[...]
  -0.38095238  0.26190476  0.00000000       0.007
  -0.42857143  0.28571429  0.00000000       0.003
  -0.40476190  0.28571429  0.00000000       0.007
  -0.38095238  0.28571429  0.00000000       0.007
  -0.35714286  0.28571429  0.00000000       0.003
  -0.38095238  0.30952381  0.00000000       0.003
  -0.35714286  0.30952381  0.00000000       0.007
  -0.33333333  0.33333333  0.00000000       0.001

 position of ions in fractional coordinates (direct lattice)
   0.00000000  0.00000000  0.00000000
   0.33333300  0.33333300  0.00000000

 position of ions in cartesian coordinates  (Angst):
   0.00000000  0.00000000  0.00000000
   1.41999858  0.00000000  0.00000000

 k-point  1 :   0.0000 0.0000 0.0000  plane waves:    5409
 k-point  2 :   0.0238 0.0000 0.0000  plane waves:    5407
 k-point  3 :   0.0476 0.0000 0.0000  plane waves:    5413
 k-point  4 :   0.0714 0.0000 0.0000  plane waves:    5415
 k-point  5 :   0.0952 0.0000 0.0000  plane waves:    5402
 k-point  6 :   0.1190 0.0000 0.0000  plane waves:    5406
 k-point  7 :   0.1429 0.0000 0.0000  plane waves:    5398
 k-point  8 :   0.1667 0.0000 0.0000  plane waves:    5394
 k-point  9 :   0.1905 0.0000 0.0000  plane waves:    5404
 k-point 10 :   0.2143 0.0000 0.0000  plane waves:    5410
 k-point 11 :   0.2381 0.0000 0.0000  plane waves:    5408
 k-point 12 :   0.2619 0.0000 0.0000  plane waves:    5402
 k-point 13 :   0.2857 0.0000 0.0000  plane waves:    5404
 k-point 14 :   0.3095 0.0000 0.0000  plane waves:    5394
 k-point 15 :   0.3333 0.0000 0.0000  plane waves:    5394
 k-point 16 :   0.3571 0.0000 0.0000  plane waves:    5390
 k-point 17 :   0.3810 0.0000 0.0000  plane waves:    5382
 k-point 18 :   0.4048 0.0000 0.0000  plane waves:    5382
 k-point 19 :   0.4286 0.0000 0.0000  plane waves:    5396
 k-point 20 :   0.4524 0.0000 0.0000  plane waves:    5390
 k-point 21 :   0.4762 0.0000 0.0000  plane waves:    5380
 k-point 22 :   0.5000 0.0000 0.0000  plane waves:    5384
 k-point 23 :   0.0476 0.0238 0.0000  plane waves:    5403
 k-point 24 :   0.0714 0.0238 0.0000  plane waves:    5411
 k-point 25 :   0.0952 0.0238 0.0000  plane waves:    5401
 k-point 26 :   0.1190 0.0238 0.0000  plane waves:    5406
 k-point 27 :   0.1429 0.0238 0.0000  plane waves:    5404
 k-point 28 :   0.1667 0.0238 0.0000  plane waves:    5403
 k-point 29 :   0.1905 0.0238 0.0000  plane waves:    5397
 k-point 30 :   0.2143 0.0238 0.0000  plane waves:    5399
 k-point 31 :   0.2381 0.0238 0.0000  plane waves:    5400
 k-point 32 :   0.2619 0.0238 0.0000  plane waves:    5404
 k-point 33 :   0.2857 0.0238 0.0000  plane waves:    5404
 k-point 34 :   0.3095 0.0238 0.0000  plane waves:    5402
 k-point 35 :   0.3333 0.0238 0.0000  plane waves:    5383
 k-point 36 :   0.3571 0.0238 0.0000  plane waves:    5372
 k-point 37 :   0.3810 0.0238 0.0000  plane waves:    5386
 k-point 38 :   0.4048 0.0238 0.0000  plane waves:    5380
 k-point 39 :   0.4286 0.0238 0.0000  plane waves:    5394
 k-point 40 :   0.4524 0.0238 0.0000  plane waves:    5396
 k-point 41 :   0.4762 0.0238 0.0000  plane waves:    5391
 k-point 42 :   0.5000 0.0238 0.0000  plane waves:    5385
 k-point 43 :   0.0952 0.0476 0.0000  plane waves:    5411
 k-point 44 :   0.1190 0.0476 0.0000  plane waves:    5406
 k-point 45 :   0.1429 0.0476 0.0000  plane waves:    5415
 k-point 46 :   0.1667 0.0476 0.0000  plane waves:    5407
 k-point 47 :   0.1905 0.0476 0.0000  plane waves:    5413
 k-point 48 :   0.2143 0.0476 0.0000  plane waves:    5409
 k-point 49 :   0.2381 0.0476 0.0000  plane waves:    5399
 k-point 50 :   0.2619 0.0476 0.0000  plane waves:    5403
 k-point 51 :   0.2857 0.0476 0.0000  plane waves:    5396
 k-point 52 :   0.3095 0.0476 0.0000  plane waves:    5394
 k-point 53 :   0.3333 0.0476 0.0000  plane waves:    5389
 k-point 54 :   0.3571 0.0476 0.0000  plane waves:    5372
 k-point 55 :   0.3810 0.0476 0.0000  plane waves:    5378
 k-point 56 :   0.4048 0.0476 0.0000  plane waves:    5374
 k-point 57 :   0.4286 0.0476 0.0000  plane waves:    5381
 k-point 58 :   0.4524 0.0476 0.0000  plane waves:    5386
 k-point 59 :   0.4762 0.0476 0.0000  plane waves:    5391
 k-point 60 :   0.5000 0.0476 0.0000  plane waves:    5387
[...]
 k-point 85 :   0.3333 0.0952 0.0000  plane waves:    5384
 k-point 86 :   0.3571 0.0952 0.0000  plane waves:    5380
 k-point 87 :   0.3810 0.0952 0.0000  plane waves:    5369
 k-point 88 :   0.4048 0.0952 0.0000  plane waves:    5361
 k-point 89 :   0.4286 0.0952 0.0000  plane waves:    5364
 k-point 90 :   0.4524 0.0952 0.0000  plane waves:    5378
 k-point 91 :   0.4762 0.0952 0.0000  plane waves:    5382
 k-point 92 :   0.5000 0.0952 0.0000  plane waves:    5394
 k-point 93 :  -0.4762 0.0952 0.0000  plane waves:    5404
 k-point 94 :  -0.4524 0.0952 0.0000  plane waves:    5398
 k-point 95 :   0.2381 0.1190 0.0000  plane waves:    5405
 k-point 96 :   0.2619 0.1190 0.0000  plane waves:    5403
 k-point 97 :   0.2857 0.1190 0.0000  plane waves:    5401
 k-point 98 :   0.3095 0.1190 0.0000  plane waves:    5403
 k-point 99 :   0.3333 0.1190 0.0000  plane waves:    5388
 k-point ** :   0.3571 0.1190 0.0000  plane waves:    5390
 k-point ** :   0.3810 0.1190 0.0000  plane waves:    5379
 k-point ** :   0.4048 0.1190 0.0000  plane waves:    5359
 k-point ** :   0.4286 0.1190 0.0000  plane waves:    5351
 k-point ** :   0.4524 0.1190 0.0000  plane waves:    5363
 k-point ** :   0.4762 0.1190 0.0000  plane waves:    5382
 k-point ** :   0.5000 0.1190 0.0000  plane waves:    5375
 k-point ** :  -0.4762 0.1190 0.0000  plane waves:    5386
 k-point ** :  -0.4524 0.1190 0.0000  plane waves:    5396
 k-point ** :   0.2857 0.1429 0.0000  plane waves:    5405
 k-point ** :   0.3095 0.1429 0.0000  plane waves:    5401
 k-point ** :   0.3333 0.1429 0.0000  plane waves:    5404
 k-point ** :   0.3571 0.1429 0.0000  plane waves:    5390
 k-point ** :   0.3810 0.1429 0.0000  plane waves:    5382
 k-point ** :   0.4048 0.1429 0.0000  plane waves:    5367
 k-point ** :   0.4286 0.1429 0.0000  plane waves:    5347
 k-point ** :   0.4524 0.1429 0.0000  plane waves:    5358
 k-point ** :   0.4762 0.1429 0.0000  plane waves:    5367
 k-point ** :   0.5000 0.1429 0.0000  plane waves:    5379
 k-point ** :  -0.4762 0.1429 0.0000  plane waves:    5376
 k-point ** :  -0.4524 0.1429 0.0000  plane waves:    5384
 k-point ** :  -0.4286 0.1429 0.0000  plane waves:    5400
 k-point ** :   0.3333 0.1667 0.0000  plane waves:    5400
 k-point ** :   0.3571 0.1667 0.0000  plane waves:    5402
 k-point ** :   0.3810 0.1667 0.0000  plane waves:    5386
 k-point ** :   0.4048 0.1667 0.0000  plane waves:    5369
 k-point ** :   0.4286 0.1667 0.0000  plane waves:    5354
 k-point ** :   0.4524 0.1667 0.0000  plane waves:    5360
 k-point ** :   0.4762 0.1667 0.0000  plane waves:    5361
 k-point ** :   0.5000 0.1667 0.0000  plane waves:    5371
 k-point ** :  -0.4762 0.1667 0.0000  plane waves:    5374
 k-point ** :  -0.4524 0.1667 0.0000  plane waves:    5379
 k-point ** :  -0.4286 0.1667 0.0000  plane waves:    5384
 k-point ** :   0.3810 0.1905 0.0000  plane waves:    5390
 k-point ** :   0.4048 0.1905 0.0000  plane waves:    5379
 k-point ** :   0.4286 0.1905 0.0000  plane waves:    5358
 k-point ** :   0.4524 0.1905 0.0000  plane waves:    5357
 k-point ** :   0.4762 0.1905 0.0000  plane waves:    5365
 k-point ** :   0.5000 0.1905 0.0000  plane waves:    5371
 k-point ** :  -0.4762 0.1905 0.0000  plane waves:    5363
 k-point ** :  -0.4524 0.1905 0.0000  plane waves:    5368
 k-point ** :  -0.4286 0.1905 0.0000  plane waves:    5377
 k-point ** :  -0.4048 0.1905 0.0000  plane waves:    5364
 k-point ** :   0.4286 0.2143 0.0000  plane waves:    5360
 k-point ** :   0.4524 0.2143 0.0000  plane waves:    5360
 k-point ** :   0.4762 0.2143 0.0000  plane waves:    5371
 k-point ** :   0.5000 0.2143 0.0000  plane waves:    5367
 k-point ** :  -0.4762 0.2143 0.0000  plane waves:    5369
 k-point ** :  -0.4524 0.2143 0.0000  plane waves:    5358
 k-point ** :  -0.4286 0.2143 0.0000  plane waves:    5359
 k-point ** :  -0.4048 0.2143 0.0000  plane waves:    5376
 k-point ** :   0.4762 0.2381 0.0000  plane waves:    5364
 k-point ** :   0.5000 0.2381 0.0000  plane waves:    5367
 k-point ** :  -0.4762 0.2381 0.0000  plane waves:    5368
 k-point ** :  -0.4524 0.2381 0.0000  plane waves:    5356
 k-point ** :  -0.4286 0.2381 0.0000  plane waves:    5360
 k-point ** :  -0.4048 0.2381 0.0000  plane waves:    5363
 k-point ** :  -0.3810 0.2381 0.0000  plane waves:    5366
 k-point ** :  -0.4762 0.2619 0.0000  plane waves:    5368
 k-point ** :  -0.4524 0.2619 0.0000  plane waves:    5364
 k-point ** :  -0.4286 0.2619 0.0000  plane waves:    5358
 k-point ** :  -0.4048 0.2619 0.0000  plane waves:    5350
 k-point ** :  -0.3810 0.2619 0.0000  plane waves:    5349
 k-point ** :  -0.4286 0.2857 0.0000  plane waves:    5362
 k-point ** :  -0.4048 0.2857 0.0000  plane waves:    5344
 k-point ** :  -0.3810 0.2857 0.0000  plane waves:    5326
 k-point ** :  -0.3571 0.2857 0.0000  plane waves:    5328
 k-point ** :  -0.3810 0.3095 0.0000  plane waves:    5342
 k-point ** :  -0.3571 0.3095 0.0000  plane waves:    5333
 k-point ** :  -0.3333 0.3333 0.0000  plane waves:    5334

 maximum and minimum number of plane-waves per node :       928      873

 maximum number of plane-waves:      5425
 maximum index in each direction:
   IXMAX=    6   IYMAX=    5   IZMAX=   46
   IXMIN=   -6   IYMIN=   -5   IZMIN=  -46

 parallel 3D FFT for wavefunctions:
    minimum data exchange during FFTs selected (reduces bandwidth)
 parallel 3D FFT for charge:
    minimum data exchange during FFTs selected (reduces bandwidth)

 Broyden mixing: mesh for mixing (old mesh)
   NGX = 11   NGY = 11   NGZ = 93
  (NGX  = 48   NGY  = 48   NGZ  =384)
  gives a total of  11253 points

 initial charge density was supplied:
 number of electron       8.0000000 magnetization
 keeping initial charge density in first step

 Maximum index for augmentation-charges         3260 (set IRDMAX)

 First call to EWALD:  gamma=   0.376
 Maximum number of real-space cells 5x 5x 1
 Maximum number of reciprocal cells 2x 2x10

--------------------------------------- Iteration      1(   1)  ---------------------------------------

 eigenvalue-minimisations  :  4056
 total energy-change (2. order) : 0.3697983E+02  (-0.3713957E+03)
 number of electron       8.0000000 magnetization
 augmentation part        8.0000000 magnetization

 Free energy of the ion-electron system (eV)
  alpha Z        PSCENC =         3.11066570
  Ewald energy   TEWEN  =      1303.03316907
  -Hartree energ DENC   =     -1550.04196571
  -exchange      EXHF   =         0.00000000
  -V(xc)+E(xc)   XCENC  =        28.81789780
  PAW double counting   =       139.92185291     -142.50237342
  entropy T*S    EENTRO =        -0.00568099
  eigenvalues    EBANDS =       -39.66258111
  atomic energy  EATOM  =       294.30884690
  Solvation  Ediel_sol  =         0.00000000
  free energy    TOTEN  =        36.97983115 eV

  energy without entropy =       36.98551215  energy(sigma->0) =       36.98267165

[...]

 eigenvalue-minimisations  :  5772
 total energy-change (2. order) :-0.5290789E+02  (-0.4210026E+02)
 number of electron       8.0000000 magnetization
 augmentation part        8.0000000 magnetization

[...]

 Broyden mixing:
  rms(total) = 0.17658E-04    rms(broyden)= 0.17636E-04
  rms(prec ) = 0.18458E-04
  weight for this iteration     100.00

[...]

 Broyden mixing:
  rms(total) = 0.66722E-05    rms(broyden)= 0.66677E-05
  rms(prec ) = 0.68853E-05
  weight for this iteration     100.00

 eigenvalues of (default mixing * dielectric matrix)
  average eigenvalue GAMMA=   1.2300
  1.2300

[...]

--------------------------------------- Iteration      1(   7)  ---------------------------------------

 eigenvalue-minimisations  :  5640
 total energy-change (2. order) :-0.7962058E-09  (-0.2630869E-09)
 number of electron       8.0000000 magnetization
 augmentation part        0.1924590 magnetization

 Free energy of the ion-electron system (eV)
  alpha Z        PSCENC =         3.11066570
  Ewald energy   TEWEN  =      1303.03316907
  -Hartree energ DENC   =     -1550.04169781
  -exchange      EXHF   =         0.00000000
  -V(xc)+E(xc)   XCENC  =        28.81788536
  PAW double counting   =       139.92165029     -142.50215806
  entropy T*S    EENTRO =        -0.00012793
  eigenvalues    EBANDS =       -95.10725450
  atomic energy  EATOM  =       294.30884690
  Solvation  Ediel_sol  =         0.00000000
  free energy    TOTEN  =       -18.45902098 eV

  energy without entropy =      -18.45889304  energy(sigma->0) =      -18.45895701

 average (electrostatic) potential at core
  the test charge radii are     0.6991
  (the norm of the test charge is              1.0000)
       1 -58.1430       2 -58.1430

 E-fermi :  -2.7218     XC(G=0):  -2.1518     alpha+bet : -1.9163

 k-point     1 :       0.0000    0.0000    0.0000
  band No.  band energies     occupation
      1     -22.2970      2.00000
      2     -10.3902      2.00000
      3      -5.7500      2.00000
      4      -5.7500      2.00000
      5       0.5266      0.00000
      6       1.3284      0.00000
      7       1.6968      0.00000
      8       2.6044      0.00000
      9       3.0677      0.00000
     10       4.7277      0.00000
     11       5.3494      0.00000
     12       5.6502      0.00000

[...]

 k-point   169 :      -0.3333    0.3333    0.0000
  band No.  band energies     occupation
      1     -15.3357      2.00000
      2     -15.3357      2.00000
      3     -13.3265      2.00000
      4      -2.7218      1.00015
      5      -2.7217      0.99985
      6       7.9118      0.00000
      7      10.2206      0.00000
      8      10.2206      0.00000
      9      10.8102      0.00000
     10      12.1933      0.00000
     11      12.1933      0.00000
     12      12.5590      0.00000

 soft charge-density along one line, spin component           1
         0         1         2         3         4         5         6         7         8         9
 total charge-density along one line

------------------------ aborting loop because EDIFF is reached ----------------------------------------

  FORCE on cell =-STRESS in cart. coord.  units (eV):
  Direction    XX          YY          ZZ          XY          YZ          ZX
  Alpha Z     3.11067     3.11067     3.11067
  Ewald    1572.61546  1572.61484 -1842.19716     0.00000     0.00000    -0.00000
  Hartree  1538.77885  1538.77884 -1527.51620    -0.00000    -0.00000    -0.00000
  E(xc)     -29.22519   -29.22519   -30.39745    -0.00000     0.00000    -0.00000
  Local   -3197.50090 -3197.50060  3266.46268    -0.00000     0.00000     0.00000
  n-local    -7.33951    -6.79260    -6.42511     0.35932     0.00000     0.00000
  augment    -0.78078    -0.78079    -0.71373    -0.00000    -0.00000    -0.00000
  Kinetic   122.57383   118.39659   137.65362    -3.34861    -0.00000    -0.00000
  Fock        0.00000     0.00000     0.00000     0.00000     0.00000     0.00000
  Total       0.41708     0.41708    -0.02269     0.00000     0.00000     0.00000
  in kB       6.37785     6.37785    -0.34701     0.00000     0.00000     0.00000

 VOLUME and BASIS-vectors are now :
  energy-cutoff  :      800.00
  volume of cell :      104.78
      direct lattice vectors                 reciprocal lattice vectors
     2.130000000 -1.229756000  0.000000000     0.234741784 -0.406584721  0.000000000
     2.130000000  1.229756000  0.000000000     0.234741784  0.406584721  0.000000000
     0.000000000  0.000000000 20.000000000     0.000000000  0.000000000  0.050000000

  length of vectors
     2.459512110  2.459512110 20.000000000     0.469483589  0.469483589  0.050000000

 FORCES acting on ions
    electron-ion (+dipol)            ewald-force                    non-local-force                 convergence-correction
   0.197E-06 0.156E-13 -.144E-08   -.241E-03 0.675E-14 -.161E-22   -.352E-16 -.574E-17 -.310E-24   0.439E-09 -.235E-14 -.216E-11
   0.271E-03 0.242E-13 0.144E-08   0.241E-03 -.447E-14 0.161E-22   -.133E-16 -.337E-17 -.207E-24   -.420E-09 0.517E-14 -.220E-11
   0.271E-03 0.398E-13 0.189E-11   0.429E-14 0.228E-14 0.000E+00   -.485E-16 -.911E-17 -.517E-24   0.186E-10 0.282E-14 -.436E-11

 POSITION                                       TOTAL-FORCE (eV/Angst)
      0.00000      0.00000      0.00000        -0.000000      0.000000      0.000000
      1.42000      0.00000      0.00000         0.000000     -0.000000     -0.000000
    total drift:                                0.000271      0.000000     -0.000000

  FREE ENERGIE OF THE ION-ELECTRON SYSTEM (eV)
  free  energy   TOTEN  =       -18.45902098 eV

  energy  without entropy=      -18.45889304  energy(sigma->0) =      -18.45895701