 vasp.5.4.4.18Apr17-6-g9f103f2a35 (build May 31 2018 21:15:54) complex

 executed on          c7_intel_O1 date 2020.08.12  15:18:09

 INCAR:
 POTCAR:   PAW_PBE W 08Apr2002
 POTCAR:   PAW_PBE Se 06Sep2000
 POTCAR:   PAW_PBE W 08Apr2002
   VRHFIN =W : 6s5d

   TITEL  = PAW_PBE W 08Apr2002
   POMASS =  183.850; ZVAL   =    6.000    mass and valenz
   ENMAX  =  223.057; ENMIN  =  167.293 eV
   QCUT   =   -4.049; QGAM   =    8.098    optimization parameters

   Description
     l     E      TYP  RCUT    TYP  RCUT
     2   .000     23  2.500
     2   .000     23  2.500
     0   .000     23  2.500
     0   .000     23  2.500
     1   .200     23  2.750
     1  2.000     23  2.750
     3   .000      7   .000

 POTCAR:   PAW_PBE Se 06Sep2000
   VRHFIN =Se: s2p4

   TITEL  = PAW_PBE Se 06Sep2000
   POMASS =   78.960; ZVAL   =    6.000    mass and valenz
   ENMAX  =  211.534; ENMIN  =  158.651 eV
   QCUT   =   -3.943; QGAM   =    7.886    optimization parameters

   Description
     l     E      TYP  RCUT    TYP  RCUT
     0   .000     23  2.100
     0   .000     23  2.100
     1   .000     23  2.100
     1   .000     23  2.100
     2   .000     23  2.100
     3  -.100      7  2.100

 WARNING: PSMAXN for non-local potential too small
          PSMAXN should be >   14.4904333269122       NTYP=           1
 PAW_PBE W 08Apr2002                    :
 PAW_PBE Se 06Sep2000                   :

 POSCAR: generated by phonopy
  positions in direct lattice
 exchange correlation table for  LEXCH =        8
   RHO(1)=    0.500       N(1)  =     2000
   RHO(2)=  100.500       N(2)  =     4000

 ion  position               nearest neighbor table
   1  0.333  1.000  1.000-  17 2.53  10 2.53  11 2.54  26 2.54  19 2.55  20 2.55   7 3.28   8 3.28
                             3 3.28   6 3.28   2 3.28   4 3.28
   2  0.667  0.000  0.000-  18 2.54  27 2.54  20 2.54  11 2.54  21 2.54  12 2.54   4 3.28   5 3.28
                             8 3.28   9 3.28   3 3.28   1 3.28
   3  1.000  0.000  0.000-  16 2.54  25 2.54  19 2.54  10 2.54  21 2.54  12 2.54   1 3.28   6 3.28
                             7 3.28   5 3.28   9 3.28   2 3.28
   4  0.333  0.333  0.000-  11 2.54  20 2.54  14 2.54  13 2.54  22 2.54  23 2.54   2 3.28   7 3.28
                             9 3.28   5 3.28   6 3.28   1 3.28
   5  0.667  0.333  0.000-  12 2.54  21 2.54  14 2.54  23 2.54  15 2.54  24 2.54   2 3.28   7 3.28
                             8 3.28   3 3.28   4 3.28   6 3.28
   6  1.000  0.333  0.000-  10 2.54  19 2.54  13 2.54  22 2.54  15 2.54  24 2.54   3 3.28   9 3.28
                             8 3.28   4 3.28   5 3.28   1 3.28
   7  0.333  0.667  0.000-  14 2.54  23 2.54  17 2.54  26 2.54  25 2.54  16 2.54   1 3.28   5 3.28
                             4 3.28   3 3.28   8 3.28   9 3.28
   8  0.667  0.667  0.000-  15 2.54  24 2.54  17 2.54  26 2.54  18 2.54  27 2.54   1 3.28   5 3.28
                             6 3.28   2 3.28   7 3.28   9 3.28
   9  1.000  0.667  0.000-  13 2.54  22 2.54  16 2.54  25 2.54  18 2.54  27 2.54   4 3.28   6 3.28
                             2 3.28   3 3.28   7 3.28   8 3.28
  10  0.111  0.111  0.915-   1 2.53   6 2.54   3 2.54
  11  0.444  0.111  0.915-   1 2.54   4 2.54   2 2.54
  12  0.778  0.111  0.915-   5 2.54   3 2.54   2 2.54
  13  0.111  0.444  0.915-   9 2.54   6 2.54   4 2.54
  14  0.444  0.444  0.915-   7 2.54   5 2.54   4 2.54
  15  0.778  0.444  0.915-   8 2.54   6 2.54   5 2.54
  16  0.111  0.778  0.915-   3 2.54   9 2.54   7 2.54
  17  0.444  0.778  0.915-   1 2.53   8 2.54   7 2.54
  18  0.778  0.778  0.915-   2 2.54   9 2.54   8 2.54
  19  0.111  0.111  0.085-   6 2.54   3 2.54   1 2.55
  20  0.444  0.111  0.085-   4 2.54   2 2.54   1 2.55
  21  0.778  0.111  0.085-   5 2.54   3 2.54   2 2.54
  22  0.111  0.444  0.085-   9 2.54   6 2.54   4 2.54
  23  0.444  0.444  0.085-   7 2.54   5 2.54   4 2.54
  24  0.778  0.444  0.085-   8 2.54   6 2.54   5 2.54
  25  0.111  0.778  0.085-   3 2.54   9 2.54   7 2.54
  26  0.444  0.778  0.085-   8 2.54   7 2.54   1 2.54
  27  0.778  0.778  0.085-   2 2.54   9 2.54   8 2.54

  LATTYP: Found a base centered orthorhombic cell.
 ALAT       =     9.8460000000
 B/A-ratio  =     1.7309445460
 C/A-ratio  =     2.0312817388

  Lattice vectors:

 A1 = (  -4.9230000000,  -8.5214400000,   0.0000000000)
 A2 = (  -4.9230000000,   8.5214400000,   0.0000000000)
 A3 = (   0.0000000000,   0.0000000000, -20.0000000000)

Analysis of symmetry for initial positions (statically):
 Subroutine PRICEL returns:
 Original cell was already a primitive cell.

 Routine SETGRP: Setting up the symmetry group for a
 base centered orthorhombic supercell.

 Subroutine GETGRP returns: Found  1 space group operations
 (whereof  1 operations were pure point group operations)
 out of a pool of  8 trial point group operations.

The static configuration has the point symmetry C_1 .

Analysis of symmetry for dynamics (positions and initial velocities):
 Subroutine PRICEL returns:
 Original cell was already a primitive cell.

 Routine SETGRP: Setting up the symmetry group for a
 base centered orthorhombic supercell.

 Subroutine GETGRP returns: Found  1 space group operations
 (whereof  1 operations were pure point group operations)
 out of a pool of  8 trial point group operations.

The dynamic configuration has the point symmetry C_1 .

 Subroutine INISYM returns: Found  1 space group operations
 (whereof  1 operations are pure point group operations),
 and found     1 'primitive' translations

 KPOINTS: W-1, Se-2

Automatic generation of k-mesh.
Space group operators:
 irot       det(A)        alpha          n_x          n_y          n_z        tau_x        tau_y        tau_z
    1     1.000000     0.000000     1.000000     0.000000     0.000000     0.000000     0.000000     0.000000

 Subroutine IBZKPT returns following result:

 Found    221 irreducible k-points:

 Following reciprocal coordinates:
            Coordinates               Weight
  0.000000  0.000000  0.000000      1.000000
  0.047619  0.000000  0.000000      2.000000
  0.095238  0.000000  0.000000      2.000000
  0.142857  0.000000  0.000000      2.000000
  0.190476  0.000000  0.000000      2.000000
  0.238095  0.000000  0.000000      2.000000
  0.285714  0.000000  0.000000      2.000000
  0.333333  0.000000  0.000000      2.000000
  0.380952  0.000000  0.000000      2.000000
  0.428571  0.000000  0.000000      2.000000
  0.476190  0.000000  0.000000      2.000000
  0.000000  0.047619  0.000000      2.000000
  0.047619  0.047619  0.000000      2.000000
  0.095238  0.047619  0.000000      2.000000
  0.142857  0.047619  0.000000      2.000000
  0.190476  0.047619  0.000000      2.000000
  0.238095  0.047619  0.000000      2.000000
  0.285714  0.047619  0.000000      2.000000
  0.333333  0.047619  0.000000      2.000000
  0.380952  0.047619  0.000000      2.000000
  0.428571  0.047619  0.000000      2.000000
  0.476190  0.047619  0.000000      2.000000
 -0.476190  0.047619  0.000000      2.000000
 -0.428571  0.047619  0.000000      2.000000
 -0.380952  0.047619  0.000000      2.000000
 -0.333333  0.047619  0.000000      2.000000
 -0.285714  0.047619  0.000000      2.000000
 -0.238095  0.047619  0.000000      2.000000
 -0.190476  0.047619  0.000000      2.000000
 -0.142857  0.047619  0.000000      2.000000
 -0.095238  0.047619  0.000000      2.000000
 -0.047619  0.047619  0.000000      2.000000
  0.000000  0.095238  0.000000      2.000000
  0.047619  0.095238  0.000000      2.000000
  0.095238  0.095238  0.000000      2.000000
  0.142857  0.095238  0.000000      2.000000
  0.190476  0.095238  0.000000      2.000000
  0.238095  0.095238  0.000000      2.000000
  0.285714  0.095238  0.000000      2.000000
  0.333333  0.095238  0.000000      2.000000
  0.380952  0.095238  0.000000      2.000000
  0.428571  0.095238  0.000000      2.000000
  0.476190  0.095238  0.000000      2.000000
 -0.476190  0.095238  0.000000      2.000000
 -0.428571  0.095238  0.000000      2.000000
 -0.380952  0.095238  0.000000      2.000000
 -0.333333  0.095238  0.000000      2.000000
 -0.285714  0.095238  0.000000      2.000000
 -0.238095  0.095238  0.000000      2.000000
 -0.190476  0.095238  0.000000      2.000000
 -0.142857  0.095238  0.000000      2.000000
 -0.095238  0.095238  0.000000      2.000000
 -0.047619  0.095238  0.000000      2.000000
  0.000000  0.142857  0.000000      2.000000
  0.047619  0.142857  0.000000      2.000000
  0.095238  0.142857  0.000000      2.000000
  0.142857  0.142857  0.000000      2.000000
  0.190476  0.142857  0.000000      2.000000
  0.238095  0.142857  0.000000      2.000000
  0.285714  0.142857  0.000000      2.000000
[...]
  0.285714  0.476190  0.000000      2.000000
  0.333333  0.476190  0.000000      2.000000
  0.380952  0.476190  0.000000      2.000000
  0.428571  0.476190  0.000000      2.000000
  0.476190  0.476190  0.000000      2.000000
 -0.476190  0.476190  0.000000      2.000000
 -0.428571  0.476190  0.000000      2.000000
 -0.380952  0.476190  0.000000      2.000000
 -0.333333  0.476190  0.000000      2.000000
 -0.285714  0.476190  0.000000      2.000000
 -0.238095  0.476190  0.000000      2.000000
 -0.190476  0.476190  0.000000      2.000000
 -0.142857  0.476190  0.000000      2.000000
 -0.095238  0.476190  0.000000      2.000000
 -0.047619  0.476190  0.000000      2.000000

 Following cartesian coordinates:
            Coordinates               Weight
  0.000000  0.000000  0.000000      1.000000
  0.004836 -0.002794  0.000000      2.000000
  0.009673 -0.005588  0.000000      2.000000
  0.014509 -0.008382  0.000000      2.000000
  0.019346 -0.011176  0.000000      2.000000
  0.024182 -0.013970  0.000000      2.000000
  0.029018 -0.016764  0.000000      2.000000
  0.033855 -0.019559  0.000000      2.000000
  0.038691 -0.022353  0.000000      2.000000
  0.043527 -0.025147  0.000000      2.000000
  0.048364 -0.027941  0.000000      2.000000
  0.000000  0.005588  0.000000      2.000000
  0.004836  0.002794  0.000000      2.000000
  0.009673  0.000000  0.000000      2.000000
  0.014509 -0.002794  0.000000      2.000000
  0.019346 -0.005588  0.000000      2.000000
  0.024182 -0.008382  0.000000      2.000000
  0.029018 -0.011176  0.000000      2.000000
  0.033855 -0.013970  0.000000      2.000000
  0.038691 -0.016764  0.000000      2.000000
  0.043527 -0.019559  0.000000      2.000000
  0.048364 -0.022353  0.000000      2.000000
 -0.048364  0.033529  0.000000      2.000000
 -0.043527  0.030735  0.000000      2.000000
 -0.038691  0.027941  0.000000      2.000000
 -0.033855  0.025147  0.000000      2.000000
 -0.029018  0.022353  0.000000      2.000000
 -0.024182  0.019559  0.000000      2.000000
 -0.019346  0.016764  0.000000      2.000000
 -0.014509  0.013970  0.000000      2.000000
 -0.009673  0.011176  0.000000      2.000000
 -0.004836  0.008382  0.000000      2.000000
  0.000000  0.011176  0.000000      2.000000
  0.004836  0.008382  0.000000      2.000000
  0.009673  0.005588  0.000000      2.000000
  0.014509  0.002794  0.000000      2.000000
  0.019346 -0.000000  0.000000      2.000000
  0.024182 -0.002794  0.000000      2.000000
  0.029018 -0.005588  0.000000      2.000000
[...]
  weight for this iteration     100.00

[...]

 eigenvalues of (default mixing * dielectric matrix)
  average eigenvalue GAMMA=   1.0127
  1.0127

[...]

 eigenvalue-minimisations  : 55932
 total energy-change (2. order) : 0.4107674E-02  (-0.1934136E-03)
 number of electron     161.9999999 magnetization
 augmentation part      -13.7948784 magnetization

[...]

 eigenvalue-minimisations  : 51696
 total energy-change (2. order) :-0.4381836E-06  (-0.7310027E-09)
 number of electron     161.9999999 magnetization
 augmentation part      -13.7887783 magnetization

[...]

 eigenvalue-minimisations  : 42564
 total energy-change (2. order) :-0.5816946E-07  ( 0.5689694E-09)
 number of electron     161.9999999 magnetization
 augmentation part      -13.7887768 magnetization

 Broyden mixing:
  rms(total) = 0.13318E-05    rms(broyden)= 0.12202E-05
  rms(prec ) = 0.18802E-05
  weight for this iteration     100.00

[...]

 Broyden mixing:
  rms(total) = 0.11851E-05    rms(broyden)= 0.10581E-05
  rms(prec ) = 0.17348E-05
  weight for this iteration     100.00
  WARNING: grid for Broyden might be to small

[...]

 Broyden mixing:
  rms(total) = 0.88381E-06    rms(broyden)= 0.70458E-06
  rms(prec ) = 0.13434E-05
  weight for this iteration     100.00
  WARNING: grid for Broyden might be to small

 eigenvalues of (default mixing * dielectric matrix)
  average eigenvalue GAMMA=   2.5100
 24.1488  7.4587  4.4081  3.3482  2.9069  2.4808  2.4808  2.0495  2.0495  1.5907
  1.2456  1.2456  1.4249  1.0889  1.0889  0.9241  0.9241  0.9586  0.8541  0.8541
  0.8883  0.5244  0.5244  0.5395  0.5717  0.5823  0.6091

[...]

--------------------------------------- Iteration      1(  33)  ---------------------------------------

 eigenvalue-minimisations  : 38676
 total energy-change (2. order) :-0.6099981E-08  ( 0.6364050E-09)
 number of electron     161.9999999 magnetization
 augmentation part      -13.7887772 magnetization

 Free energy of the ion-electron system (eV)
  alpha Z        PSCENC =       206.49012646
  Ewald energy   TEWEN  =     19424.41326973
  -Hartree energ DENC   =    -25485.54356232
  -exchange      EXHF   =         0.00000000
  -V(xc)+E(xc)   XCENC  =      -429.53056773
  PAW double counting   =      4194.74673307    -3428.72370152
  entropy T*S    EENTRO =        -0.00000000
  eigenvalues    EBANDS =     -1143.38566058
  atomic energy  EATOM  =      6466.84281893
  Solvation  Ediel_sol  =         0.00000000
  free energy    TOTEN  =      -194.69054397 eV

  energy without entropy =     -194.69054397  energy(sigma->0) =     -194.69054397

 average (electrostatic) potential at core
  the test charge radii are     1.1823  1.0808
  (the norm of the test charge is              1.0000)
       1 -47.5180       2 -47.5184       3 -47.5178       4 -47.5186       5 -47.5180
       6 -47.5182       7 -47.5174       8 -47.5176       9 -47.5180      10 -60.1226
      11 -60.1213      12 -60.1200      13 -60.1212      14 -60.1201      15 -60.1202
      16 -60.1205      17 -60.1240      18 -60.1208      19 -60.1193      20 -60.1181
      21 -60.1218      22 -60.1215      23 -60.1219      24 -60.1220      25 -60.1208
      26 -60.1206      27 -60.1211

 E-fermi :  -1.7235     XC(G=0):  -3.9936     alpha+bet : -3.5498

 k-point     1 :       0.0000    0.0000    0.0000
  band No.  band energies     occupation
      1     -16.5476      2.00000
      2     -15.3662      2.00000
      3     -15.1784      2.00000
      4     -15.1763      2.00000
      5     -15.1763      2.00000
      6     -15.1757      2.00000
      7     -15.1748      2.00000
      8     -15.1729      2.00000
      9     -14.6276      2.00000
     10     -14.6257      2.00000
     11     -14.6257      2.00000
     12     -14.6249      2.00000
     13     -14.6241      2.00000
     14     -14.6226      2.00000
     15     -14.2406      2.00000
     16     -14.2396      2.00000
     17     -14.1211      2.00000
     18     -14.1189      2.00000
     19      -8.0046      2.00000
     20      -7.2254      2.00000
     21      -7.2245      2.00000
     22      -7.2242      2.00000
     23      -7.2236      2.00000
     24      -7.2232      2.00000
     25      -7.2218      2.00000
     26      -7.1664      2.00000
     27      -7.1651      2.00000
     28      -7.0471      2.00000
     29      -7.0471      2.00000
     30      -6.2072      2.00000
     31      -6.2052      2.00000
     32      -6.2050      2.00000
     33      -6.2046      2.00000
     34      -6.2035      2.00000
     35      -6.2016      2.00000
     36      -6.1641      2.00000
     37      -6.1632      2.00000
     38      -6.1588      2.00000
     39      -6.1574      2.00000
     40      -6.1569      2.00000
     41      -6.1569      2.00000
     42      -6.1551      2.00000
     43      -6.1541      2.00000
     44      -5.5019      2.00000
     45      -5.5011      2.00000
     46      -5.1230      2.00000
     47      -5.1229      2.00000
     48      -4.3739      2.00000
     49      -4.3721      2.00000
     50      -4.3695      2.00000
     51      -4.3667      2.00000
     52      -4.3660      2.00000
     53      -4.3653      2.00000
     54      -4.1783      2.00000
     55      -4.1754      2.00000
     56      -4.0501      2.00000
     57      -4.0466      2.00000
     58      -4.0386      2.00000
     59      -3.7927      2.00000
     60      -3.7913      2.00000
[...]
     88       0.3255      0.00000
     89       0.3286      0.00000
     90       0.5351      0.00000
     91       0.5370      0.00000
     92       0.5382      0.00000
     93       0.5397      0.00000
     94       0.5404      0.00000
     95       0.5418      0.00000
     96       0.9507      0.00000
     97       0.9509      0.00000
     98       1.2264      0.00000
     99       1.2345      0.00000
    100       1.3718      0.00000
    101       1.3910      0.00000
    102       1.4520      0.00000

[...]

 k-point   221 :      -0.0476    0.4762    0.0000
  band No.  band energies     occupation
      1     -16.1448      2.00000
      2     -16.1434      2.00000
      3     -15.5406      2.00000
      4     -15.3638      2.00000
      5     -15.1438      2.00000
      6     -15.1428      2.00000
      7     -14.8146      2.00000
      8     -14.7196      2.00000
      9     -14.6043      2.00000
     10     -14.6030      2.00000
     11     -14.5419      2.00000
     12     -14.5406      2.00000
     13     -14.5345      2.00000
     14     -14.3216      2.00000
     15     -14.3200      2.00000
     16     -14.3052      2.00000
     17     -14.2921      2.00000
     18     -14.2905      2.00000
     19      -8.1391      2.00000
     20      -7.6400      2.00000
     21      -7.6393      2.00000
     22      -7.4893      2.00000
     23      -7.4874      2.00000
     24      -7.4847      2.00000
     25      -7.4840      2.00000
     26      -6.9482      2.00000
     27      -6.8369      2.00000
     28      -6.8355      2.00000
     29      -6.8076      2.00000
     30      -6.7345      2.00000
     31      -6.7330      2.00000
     32      -6.7267      2.00000
     33      -6.3040      2.00000
     34      -6.1695      2.00000
     35      -5.9627      2.00000
     36      -5.8653      2.00000
     37      -5.8638      2.00000
     38      -5.8630      2.00000
     39      -5.8617      2.00000
     40      -5.5876      2.00000
     41      -5.3557      2.00000
     42      -5.1332      2.00000
     43      -5.1302      2.00000
     44      -5.1274      2.00000
     45      -5.1247      2.00000
     46      -5.0672      2.00000
     47      -5.0658      2.00000
     48      -5.0270      2.00000
     49      -4.8504      2.00000
     50      -4.7543      2.00000
     51      -4.7511      2.00000
     52      -4.7193      2.00000
     53      -4.5082      2.00000
     54      -4.5075      2.00000
     55      -4.3597      2.00000
     56      -4.3590      2.00000
     57      -3.9896      2.00000
     58      -3.8553      2.00000
     59      -3.8540      2.00000
     60      -3.8334      2.00000
[...]
     88       0.4279      0.00000
     89       0.4296      0.00000
     90       0.6597      0.00000
     91       0.6840      0.00000
     92       0.7161      0.00000
     93       0.7677      0.00000
     94       0.7693      0.00000
     95       0.7721      0.00000
     96       0.8492      0.00000
     97       0.9161      0.00000
     98       0.9187      0.00000
     99       1.0074      0.00000
    100       1.0400      0.00000
    101       1.0456      0.00000
    102       1.0800      0.00000

 soft charge-density along one line, spin component           1
         0         1         2         3         4         5         6         7         8         9
 total charge-density along one line

------------------------ aborting loop because EDIFF is reached ----------------------------------------

  FORCE on cell =-STRESS in cart. coord.  units (eV):
  Direction    XX          YY          ZZ          XY          YZ          ZX
  Alpha Z   206.49013   206.49013   206.49013
  Ewald   24332.25590 24333.80270-29241.66218    -0.21834     0.00169     0.00049
  Hartree 25252.17349 25252.59004-25019.22009    -0.03744    -0.00096    -0.00060
  E(xc)    -642.46142  -642.49212  -650.09635     0.00293    -0.00017    -0.00008
  Local  -51731.92390-51733.85480 52094.88171     0.23095     0.00030     0.00066
  n-local   625.30292   625.35108   674.08472    -0.01737     0.00089     0.00041
  augment   -25.08284   -25.07605   -31.55729     0.00026    -0.00004    -0.00001
  Kinetic  1991.51827  1991.87128  1967.07408     0.02345     0.00037     0.00015
  Fock        0.00000     0.00000     0.00000     0.00000     0.00000     0.00000
  Total       8.27255     8.68225    -0.00528    -0.01555     0.00207     0.00102
  in kB       7.89855     8.28973    -0.00504    -0.01485     0.00198     0.00097

 VOLUME and BASIS-vectors are now :
  energy-cutoff  :      800.00
  volume of cell :     1678.04
      direct lattice vectors                 reciprocal lattice vectors
     9.846000000  0.000000000  0.000000000     0.101564087 -0.058675529  0.000000000
     4.923000000  8.521440000  0.000000000     0.000000000  0.117351058  0.000000000
     0.000000000  0.000000000 20.000000000     0.000000000  0.000000000  0.050000000

  length of vectors
     9.846000000  9.841283894 20.000000000     0.117294848  0.117351058  0.050000000

 FORCES acting on ions
    electron-ion (+dipol)            ewald-force                    non-local-force                 convergence-correction
   -.267E+00 -.514E+00 0.136E+01   0.273E+00 0.525E+00 -.132E+01   0.413E-01 0.711E-01 0.188E+00   -.678E-06 0.515E-06 -.779E-05
   0.755E-01 -.947E-01 -.156E+00   -.746E-01 0.961E-01 0.161E+00   0.205E-02 -.495E-02 -.726E-03   0.153E-06 0.272E-06 -.867E-05
   0.739E-01 -.962E-01 -.156E+00   -.743E-01 0.965E-01 0.161E+00   -.461E-02 0.604E-03 -.781E-03   0.531E-06 0.439E-06 -.867E-05
   0.763E-01 0.782E-01 -.156E+00   -.751E-01 -.778E-01 0.160E+00   -.608E-02 0.164E-03 -.719E-03   -.395E-06 0.849E-06 -.890E-05
   0.128E-01 -.279E-01 -.784E-01   -.134E-01 0.272E-01 0.782E-01   0.867E-05 -.524E-03 0.564E-03   0.507E-06 0.828E-06 -.913E-05
   -.769E-01 -.910E-02 -.156E+00   0.770E-01 0.929E-02 0.161E+00   0.316E-02 -.386E-02 -.750E-03   -.126E-06 0.435E-06 -.872E-05
   0.740E-01 0.777E-01 -.157E+00   -.748E-01 -.764E-01 0.161E+00   0.358E-02 -.542E-02 -.835E-03   -.100E-06 -.710E-06 -.879E-05
   -.768E-01 -.957E-02 -.157E+00   0.774E-01 0.111E-01 0.161E+00   -.483E-02 -.879E-03 -.812E-03   -.524E-07 -.142E-05 -.864E-05
   0.144E-01 -.276E-01 -.760E-01   -.142E-01 0.283E-01 0.782E-01   -.940E-03 -.188E-02 -.183E-02   0.155E-06 -.119E-05 -.921E-05
   0.284E+00 -.289E+00 0.498E+03   -.299E+00 0.294E+00 -.500E+03   -.144E-01 0.595E-02 0.258E+01   -.468E-06 0.917E-06 -.638E-05
   -.240E+00 -.187E+00 0.498E+03   0.250E+00 0.192E+00 -.500E+03   0.135E-02 -.886E-03 0.259E+01   -.197E-06 0.959E-06 -.768E-05
   0.255E-01 0.119E-01 0.498E+03   -.256E-01 -.132E-01 -.500E+03   -.722E-04 0.597E-03 0.260E+01   0.647E-06 0.361E-06 -.733E-05
   -.719E-02 0.185E-01 0.498E+03   0.803E-02 -.167E-01 -.500E+03   0.107E-03 -.177E-02 0.260E+01   -.328E-06 0.772E-07 -.619E-05
   0.188E-01 0.751E-01 0.498E+03   -.204E-01 -.736E-01 -.500E+03   0.933E-03 -.171E-02 0.260E+01   -.267E-06 0.583E-06 -.653E-05
   -.122E-01 0.495E-01 0.498E+03   0.131E-01 -.482E-01 -.500E+03   -.656E-03 -.145E-02 0.260E+01   0.606E-06 -.171E-06 -.621E-05
   0.999E-01 0.760E-01 0.498E+03   -.102E+00 -.751E-01 -.500E+03   -.534E-03 -.118E-02 0.260E+01   0.150E-06 -.663E-06 -.591E-05
   -.658E-01 0.519E+00 0.498E+03   0.639E-01 -.539E+00 -.501E+03   -.620E-03 -.318E-01 0.257E+01   -.470E-06 -.984E-06 -.630E-05
   -.588E-01 0.443E-01 0.498E+03   0.607E-01 -.425E-01 -.500E+03   -.658E-05 -.773E-03 0.260E+01   0.345E-06 -.114E-05 -.693E-05
   -.414E+00 0.116E+00 -.498E+03   0.425E+00 -.126E+00 0.500E+03   0.126E-01 -.978E-02 -.262E+01   -.322E-06 0.753E-06 -.159E-04
   0.456E+00 0.215E+00 -.498E+03   -.472E+00 -.226E+00 0.500E+03   -.250E-01 -.162E-01 -.263E+01   -.392E-06 0.739E-06 -.147E-04
   0.253E-01 0.286E-01 -.498E+03   -.255E-01 -.266E-01 0.500E+03   -.718E-04 -.180E-02 -.260E+01   0.706E-06 0.395E-06 -.159E-04
   -.713E-02 0.138E+00 -.498E+03   0.797E-02 -.139E+00 0.500E+03   0.111E-03 -.157E-02 -.260E+01   -.391E-06 -.230E-06 -.173E-04
   0.332E-01 0.664E-01 -.498E+03   -.319E-01 -.665E-01 0.500E+03   -.114E-02 -.505E-03 -.260E+01   -.114E-06 0.536E-06 -.168E-04
   -.266E-01 0.410E-01 -.498E+03   0.247E-01 -.413E-01 0.500E+03   0.141E-02 -.257E-03 -.260E+01   0.501E-06 -.231E-06 -.168E-04
   -.451E-02 0.159E-01 -.498E+03   0.484E-02 -.138E-01 0.500E+03   -.685E-03 -.126E-02 -.260E+01   0.421E-06 -.396E-06 -.174E-04
   -.647E-01 -.291E+00 -.498E+03   0.629E-01 0.302E+00 0.500E+03   -.686E-03 0.390E-03 -.261E+01   -.451E-06 -.710E-06 -.160E-04
   0.452E-01 -.156E-01 -.498E+03   -.454E-01 0.186E-01 0.500E+03   0.168E-03 -.866E-03 -.260E+01   0.477E-07 -.922E-06 -.163E-04
   -.646E-02 0.105E-01 -.689E-01   -.460E-13 0.210E-13 -.227E-12   0.646E-02 -.104E-01 0.692E-01   0.186E-07 -.105E-06 -.285E-03

 POSITION                                       TOTAL-FORCE (eV/Angst)
      8.20279      8.51818     19.99102         0.046977      0.081744      0.233746
      6.56400      0.00057      0.00000         0.002992     -0.003562      0.003826
      9.84600      0.00057      0.00000        -0.005047      0.000883      0.003814
      4.92300      2.84105      0.00000        -0.004835      0.000560      0.003837
      8.20500      2.84105      0.00000        -0.000597     -0.001204      0.000290
     11.48700      2.84105      0.00000         0.003219     -0.003677      0.003867
      6.56400      5.68153      0.00000         0.002790     -0.004065      0.003812
      9.84600      5.68153      0.00000        -0.004245      0.000692      0.003854
     13.12800      5.68153      0.00000        -0.000790     -0.001192      0.000290
      1.64100      0.94715     18.30918        -0.029942      0.011641     -0.040141
      4.92300      0.94715     18.30918         0.011890      0.004054     -0.025544
      8.20500      0.94715     18.30918        -0.000237     -0.000712     -0.001011
      3.28200      3.78763     18.30918         0.000942      0.000025     -0.001596
      6.56400      3.78763     18.30918        -0.000685     -0.000169     -0.000957
      9.84600      3.78763     18.30918         0.000301     -0.000104     -0.000835
      4.92300      6.62810     18.30918        -0.002273     -0.000269     -0.002685
      8.20500      6.62810     18.30918        -0.002492     -0.051412     -0.054961
     11.48700      6.62810     18.30918         0.001839      0.001029     -0.002090
      1.64100      0.94715      1.69082         0.024252     -0.019682     -0.039316
      4.92300      0.94715      1.69082        -0.041498     -0.026777     -0.053107
      8.20500      0.94715      1.69082        -0.000223      0.000205     -0.000906
      3.28200      3.78763      1.69082         0.000950     -0.002140     -0.002744
      6.56400      3.78763      1.69082         0.000121     -0.000601     -0.000972
      9.84600      3.78763      1.69082        -0.000491     -0.000545     -0.001118
      4.92300      6.62810      1.69082        -0.000358      0.000849     -0.001662
      8.20500      6.62810      1.69082        -0.002515      0.012293     -0.025437
     11.48700      6.62810      1.69082        -0.000043      0.002138     -0.002253
    total drift:                                0.000001      0.000050      0.000005

  FREE ENERGIE OF THE ION-ELECTRON SYSTEM (eV)
  free  energy   TOTEN  =      -194.69054397 eV

  energy  without entropy=     -194.69054397  energy(sigma->0) =     -194.69054397