 vasp.5.4.4.18Apr17-6-g9f103f2a35 (build May 31 2018 21:15:54) complex

 executed on          c7_intel_O1 date 2020.08.11  21:53:05

 INCAR:
 POTCAR:   PAW_PBE C 08Apr2002
 POTCAR:   PAW_PBE C 08Apr2002
   VRHFIN =C: s2p2

   TITEL  = PAW_PBE C 08Apr2002
   POMASS =   12.011; ZVAL   =    4.000    mass and valenz
   ENMAX  =  400.000; ENMIN  =  300.000 eV
   QCUT   =   -5.516; QGAM   =   11.032    optimization parameters

   Description
     l     E      TYP  RCUT    TYP  RCUT
     0   .000     23  1.200
     0   .000     23  1.200
     1   .000     23  1.500
     1  2.500     23  1.500
     2   .000      7  1.500

 PAW_PBE C 08Apr2002                    :

 POSCAR: C2
  positions in direct lattice
  velocities in cartesian coordinates
 exchange correlation table for  LEXCH =        8
   RHO(1)=    0.500       N(1)  =     2000
   RHO(2)=  100.500       N(2)  =     4000

 ion  position               nearest neighbor table
   1  0.000  0.000  0.000-   2 1.42   2 1.42   2 1.42
   2  0.333  0.333  0.000-   1 1.42   1 1.42   1 1.42

  LATTYP: Found a hexagonal cell.
 ALAT       =     2.4595120000
 C/A-ratio  =     8.1316944174

  Lattice vectors:

 A1 = (   0.0000000000,  -2.4595120000,   0.0000000000)
 A2 = (  -2.1300000000,   1.2297560000,   0.0000000000)
 A3 = (   0.0000000000,   0.0000000000, -20.0000000000)

Analysis of symmetry for initial positions (statically):
 Subroutine PRICEL returns:
 Original cell was already a primitive cell.

 Routine SETGRP: Setting up the symmetry group for a
 hexagonal supercell.

 Subroutine GETGRP returns: Found 24 space group operations
 (whereof 12 operations were pure point group operations)
 out of a pool of 24 trial point group operations.

The static configuration has the point symmetry D_3h.
 The point group associated with its full space group is D_6h.

Analysis of symmetry for dynamics (positions and initial velocities):
 Subroutine PRICEL returns:
 Original cell was already a primitive cell.

 Routine SETGRP: Setting up the symmetry group for a
 hexagonal supercell.

 Subroutine GETGRP returns: Found 24 space group operations
 (whereof 12 operations were pure point group operations)
 out of a pool of 24 trial point group operations.

The dynamic configuration has the point symmetry D_3h.
 The point group associated with its full space group is D_6h.

 Subroutine INISYM returns: Found 24 space group operations
 (whereof 12 operations are pure point group operations),
 and found     1 'primitive' translations

 KPOINTS: k-points along high symmetry lines
  interpolating k-points between supplied coordinates
  k-points in reciprocal lattice
Space group operators:
 irot       det(A)        alpha          n_x          n_y          n_z        tau_x        tau_y        tau_z
    1     1.000000     0.000000     1.000000     0.000000     0.000000     0.000000     0.000000     0.000000
    2    -1.000000    60.000000     0.000000     0.000000     1.000000     0.000000     0.000000     0.000000
    3     1.000000   120.000000     0.000000     0.000000     1.000000     0.000000     0.000000     0.000000
    4    -1.000000   180.000000     0.000000     0.000000     1.000000     0.000000     0.000000     0.000000
    5     1.000000   120.000000     0.000000     0.000000    -1.000000     0.000000     0.000000     0.000000
    6    -1.000000    60.000000     0.000000     0.000000    -1.000000     0.000000     0.000000     0.000000
    7    -1.000000   180.000000    -0.000000     1.000000     0.000000     0.000000     0.000000     0.000000
    8     1.000000   180.000000     0.500000    -0.866025     0.000000     0.000000     0.000000     0.000000
    9    -1.000000   180.000000     0.866025    -0.500000     0.000000     0.000000     0.000000     0.000000
   10     1.000000   180.000000     1.000000     0.000000     0.000000     0.000000     0.000000     0.000000
   11    -1.000000   180.000000     0.866025     0.500000     0.000000     0.000000     0.000000     0.000000
   12     1.000000   180.000000    -0.500000    -0.866025     0.000000     0.000000     0.000000     0.000000
   13    -1.000000     0.000000     1.000000     0.000000     0.000000     0.333333    -0.666667     0.000000
   14     1.000000    60.000000     0.000000     0.000000     1.000000     0.333333    -0.666667     0.000000
   15    -1.000000   120.000000     0.000000     0.000000     1.000000     0.333333    -0.666667     0.000000
   16     1.000000   180.000000     0.000000     0.000000     1.000000     0.333333    -0.666667     0.000000
   17    -1.000000   120.000000     0.000000     0.000000    -1.000000     0.333333    -0.666667     0.000000
   18     1.000000    60.000000     0.000000     0.000000    -1.000000     0.333333    -0.666667     0.000000
   19     1.000000   180.000000    -0.000000     1.000000     0.000000     0.333333    -0.666667     0.000000
   20    -1.000000   180.000000     0.500000    -0.866025     0.000000     0.333333    -0.666667     0.000000
   21     1.000000   180.000000     0.866025    -0.500000     0.000000     0.333333    -0.666667     0.000000
   22    -1.000000   180.000000     1.000000     0.000000     0.000000     0.333333    -0.666667     0.000000
   23     1.000000   180.000000     0.866025     0.500000     0.000000     0.333333    -0.666667     0.000000
   24    -1.000000   180.000000    -0.500000    -0.866025     0.000000     0.333333    -0.666667     0.000000

 SYSTEM =  C-2
 POSCAR =  C2

 Startparameter for this run:
   NWRITE =      2    write-flag & timer
   PREC   = accura    normal or accurate (medium, high low for compatibility)
   ISTART =      0    job   : 0-new  1-cont  2-samecut
   ICHARG =     11    charge: 1-file 2-atom 10-const
   ISPIN  =      1    spin polarized calculation?
   LNONCOLLINEAR =      F non collinear calculations
   LSORBIT =      F    spin-orbit coupling
   INIWAV =      1    electr: 0-lowe 1-rand  2-diag
   LASPH  =      F    aspherical Exc in radial PAW
   METAGGA=      F    non-selfconsistent MetaGGA calc.

 Electronic Relaxation 1
   ENCUT  =  800.0 eV  58.80 Ry    7.67 a.u.   5.67  5.67 46.12*2*pi/ulx,y,z
   ENINI  =  800.0     initial cutoff
   ENAUG  =  644.9 eV  augmentation charge cutoff
   NELM   =     60;   NELMIN=  5; NELMDL= -5     # of ELM steps
   EDIFF  = 0.1E-07   stopping-criterion for ELM
   LREAL  =      F    real-space projection
   NLSPLINE    = F    spline interpolate recip. space projectors
   LCOMPAT=      F    compatible to vasp.4.4
   GGA_COMPAT  = T    GGA compatible to vasp.4.4-vasp.4.6
   LMAXPAW     = -100 max onsite density
   LMAXMIX     =    2 max onsite mixed and CHGCAR
   VOSKOWN=      0    Vosko Wilk Nusair interpolation
   ROPT   =    0.00000
 Ionic relaxation
   EDIFFG = -.1E-07   stopping-criterion for IOM
   NSW    =      0    number of steps for IOM
   NBLOCK =      1;   KBLOCK =      1    inner block; outer block
   IBRION =     -1    ionic relax: 0-MD 1-quasi-New 2-CG
   NFREE  =      0    steps in history (QN), initial steepest desc. (CG)
   ISIF   =      2    stress and relaxation
   IWAVPR =     10    prediction:  0-non 1-charg 2-wave 3-comb
   ISYM   =      2    0-nonsym 1-usesym 2-fastsym
   LCORR  =      T    Harris-Foulkes like correction to forces

   POTIM  = 0.5000    time-step for ionic-motion
   TEIN   =    0.0    initial temperature
   TEBEG  =    0.0;   TEEND  =   0.0 temperature during run
   SMASS  =  -3.00    Nose mass-parameter (am)
   estimated Nose-frequenzy (Omega)   =  0.10E-29 period in steps =****** mass=  -0.138E-27a.u.
   SCALEE = 1.0000    scale energy and forces
   NPACO  =    256;   APACO  = 16.0  distance and # of slots for P.C.
   PSTRESS=    0.0 pullay stress

  Mass of Ions in am
   POMASS =  12.01
  Ionic Valenz
   ZVAL   =   4.00
  Atomic Wigner-Seitz radii
  virtual crystal weights
   VCA    =   1.00
   NELECT =       8.0000    total number of electrons
   NUPDOWN=      -1.0000    fix difference up-down

 DOS related values:
   EMIN   =  10.00;   EMAX   =-10.00  energy-range for DOS
   EFERMI =   0.00
   ISMEAR =     0;   SIGMA  =   0.01  broadening in eV -4-tet -1-fermi 0-gaus

 Electronic relaxation 2 (details)
   IALGO  =     38    algorithm
   LDIAG  =      T    sub-space diagonalisation (order eigenvalues)
   LSUBROT=      F    optimize rotation matrix (better conditioning)
   TURBO    =      0    0=normal 1=particle mesh
   IRESTART =      0    0=no restart 2=restart with 2 vectors
   NREBOOT  =      0    no. of reboots
   NMIN     =      0    reboot dimension
   EREF     =   0.00    reference energy to select bands
   IMIX   =      4    mixing-type and parameters
     AMIX     =   0.40;   BMIX     =  1.00
     AMIX_MAG =   1.60;   BMIX_MAG =  1.00
     AMIN     =   0.01
     WC   =   100.;   INIMIX=   1;  MIXPRE=   1;  MAXMIX= -45

 Intra band minimization:
   WEIMIN = 0.0000     energy-eigenvalue tresh-hold
   EBREAK =  0.21E-10  absolut break condition
   DEPER  =   0.30     relativ break condition

   TIME   =   0.40     timestep for ELM

  volume/ion in A,a.u.               =      52.39       353.53
  Fermi-wavevector in a.u.,A,eV,Ry     =   0.694521  1.312454  6.562896  0.482359
  Thomas-Fermi vector in A             =   1.777037

 Write flags
   LWAVE        =      F    write WAVECAR
   LDOWNSAMPLE  =      F    k-point downsampling of WAVECAR
   LCHARG       =      F    write CHGCAR
   LVTOT        =      F    write LOCPOT, total local potential
   LVHAR        =      F    write LOCPOT, Hartree potential only
   LELF         =      F    write electronic localiz. function (ELF)
   LORBIT       =      0    0 simple, 1 ext, 2 COOP (PROOUT), +10 PAW based schemes

 Dipole corrections
   LMONO  =      F    monopole corrections only (constant potential shift)
   LDIPOL =      F    correct potential (dipole corrections)
   IDIPOL =      0    1-x, 2-y, 3-z, 4-all directions
   EPSILON=  1.0000000 bulk dielectric constant

 Exchange correlation treatment:
   GGA     =    --    GGA type
   VOSKOWN=      0    Vosko Wilk Nusair interpolation
   LHFCALC =     F    Hartree Fock is set to
   LHFONE  =     F    Hartree Fock one center treatment
   AEXX    =    0.0000 exact exchange contribution

 Linear response parameters
   LEPSILON=     F    determine dielectric tensor
   LRPA    =     F    only Hartree local field effects (RPA)
   LNABLA  =     F    use nabla operator in PAW spheres
   LVEL    =     F    velocity operator in full k-point grid
   LINTERFAST=   F  fast interpolation
   KINTER  =     0    interpolate to denser k-point grid
   CSHIFT  =0.1000    complex shift for real part using Kramers Kronig
   OMEGAMAX=  -1.0    maximum frequency
   DEG_THRESHOLD= 0.2000000E-02 threshold for treating states as degnerate
   RTIME   =   -0.100 relaxation time in fs
  (WPLASMAI=    0.000 imaginary part of plasma frequency in eV, 0.658/RTIME)
   DFIELD  = 0.0000000 0.0000000 0.0000000 field for delta impulse in time

 Orbital magnetization related:
   ORBITALMAG=     F  switch on orbital magnetization
   LCHIMAG   =     F  perturbation theory with respect to B field
   DQ        =  0.001000  dq finite difference perturbation B field
   LLRAUG    =     F  two centre corrections for induced B field

 Static calculation
[...]
   0.34693878  0.34693878  0.00000000       0.007
   0.35714286  0.35714286  0.00000000       0.007
   0.36734694  0.36734694  0.00000000       0.007
   0.37755102  0.37755102  0.00000000       0.007
   0.38775510  0.38775510  0.00000000       0.007
   0.39795918  0.39795918  0.00000000       0.007
   0.40816327  0.40816327  0.00000000       0.007
   0.41836735  0.41836735  0.00000000       0.007
   0.42857143  0.42857143  0.00000000       0.007
   0.43877551  0.43877551  0.00000000       0.007
   0.44897959  0.44897959  0.00000000       0.007
   0.45918367  0.45918367  0.00000000       0.007
   0.46938776  0.46938776  0.00000000       0.007
   0.47959184  0.47959184  0.00000000       0.007
   0.48979592  0.48979592  0.00000000       0.007
   0.50000000  0.50000000  0.00000000       0.007
   0.50000000  0.50000000  0.00000000       0.007
   0.50340137  0.49659863  0.00000000       0.007
   0.50680273  0.49319727  0.00000000       0.007
   0.51020410  0.48979590  0.00000000       0.007
   0.51360547  0.48639453  0.00000000       0.007
   0.51700684  0.48299316  0.00000000       0.007
   0.52040820  0.47959180  0.00000000       0.007
   0.52380957  0.47619043  0.00000000       0.007
   0.52721094  0.47278906  0.00000000       0.007
   0.53061231  0.46938769  0.00000000       0.007
[...]
   0.19047629  0.09523800  0.00000000       0.007
   0.17687084  0.08843529  0.00000000       0.007
   0.16326539  0.08163257  0.00000000       0.007
   0.14965994  0.07482986  0.00000000       0.007
   0.13605449  0.06802714  0.00000000       0.007
   0.12244904  0.06122443  0.00000000       0.007
   0.10884359  0.05442171  0.00000000       0.007
   0.09523814  0.04761900  0.00000000       0.007
   0.08163269  0.04081629  0.00000000       0.007
   0.06802724  0.03401357  0.00000000       0.007
   0.05442180  0.02721086  0.00000000       0.007
   0.04081635  0.02040814  0.00000000       0.007
   0.02721090  0.01360543  0.00000000       0.007
   0.01360545  0.00680271  0.00000000       0.007
  -0.00000000  0.00000000  0.00000000       0.007

 position of ions in fractional coordinates (direct lattice)
   0.00000000  0.00000000  0.00000000
   0.33333300  0.33333300  0.00000000

 position of ions in cartesian coordinates  (Angst):
   0.00000000  0.00000000  0.00000000
   1.41999858  0.00000000  0.00000000

 k-point  1 :   0.0000 0.0000 0.0000  plane waves:    5409
 k-point  2 :   0.0102 0.0102 0.0000  plane waves:    5409
 k-point  3 :   0.0204 0.0204 0.0000  plane waves:    5407
 k-point  4 :   0.0306 0.0306 0.0000  plane waves:    5413
 k-point  5 :   0.0408 0.0408 0.0000  plane waves:    5413
 k-point  6 :   0.0510 0.0510 0.0000  plane waves:    5417
 k-point  7 :   0.0612 0.0612 0.0000  plane waves:    5415
 k-point  8 :   0.0714 0.0714 0.0000  plane waves:    5415
 k-point  9 :   0.0816 0.0816 0.0000  plane waves:    5405
 k-point 10 :   0.0918 0.0918 0.0000  plane waves:    5400
 k-point 11 :   0.1020 0.1020 0.0000  plane waves:    5406
 k-point 12 :   0.1122 0.1122 0.0000  plane waves:    5412
 k-point 13 :   0.1224 0.1224 0.0000  plane waves:    5406
 k-point 14 :   0.1327 0.1327 0.0000  plane waves:    5402
 k-point 15 :   0.1429 0.1429 0.0000  plane waves:    5398
 k-point 16 :   0.1531 0.1531 0.0000  plane waves:    5388
 k-point 17 :   0.1633 0.1633 0.0000  plane waves:    5394
 k-point 18 :   0.1735 0.1735 0.0000  plane waves:    5398
 k-point 19 :   0.1837 0.1837 0.0000  plane waves:    5400
 k-point 20 :   0.1939 0.1939 0.0000  plane waves:    5400
 k-point 21 :   0.2041 0.2041 0.0000  plane waves:    5396
 k-point 22 :   0.2143 0.2143 0.0000  plane waves:    5410
 k-point 23 :   0.2245 0.2245 0.0000  plane waves:    5410
 k-point 24 :   0.2347 0.2347 0.0000  plane waves:    5408
 k-point 25 :   0.2449 0.2449 0.0000  plane waves:    5408
 k-point 26 :   0.2551 0.2551 0.0000  plane waves:    5406
 k-point 27 :   0.2653 0.2653 0.0000  plane waves:    5402
 k-point 28 :   0.2755 0.2755 0.0000  plane waves:    5412
 k-point 29 :   0.2857 0.2857 0.0000  plane waves:    5404
 k-point 30 :   0.2959 0.2959 0.0000  plane waves:    5410
 k-point 31 :   0.3061 0.3061 0.0000  plane waves:    5394
 k-point 32 :   0.3163 0.3163 0.0000  plane waves:    5390
 k-point 33 :   0.3265 0.3265 0.0000  plane waves:    5380
 k-point 34 :   0.3367 0.3367 0.0000  plane waves:    5388
 k-point 35 :   0.3469 0.3469 0.0000  plane waves:    5396
 k-point 36 :   0.3571 0.3571 0.0000  plane waves:    5390
 k-point 37 :   0.3673 0.3673 0.0000  plane waves:    5382
 k-point 38 :   0.3776 0.3776 0.0000  plane waves:    5378
 k-point 39 :   0.3878 0.3878 0.0000  plane waves:    5374
 k-point 40 :   0.3980 0.3980 0.0000  plane waves:    5384
 k-point 41 :   0.4082 0.4082 0.0000  plane waves:    5382
 k-point 42 :   0.4184 0.4184 0.0000  plane waves:    5382
 k-point 43 :   0.4286 0.4286 0.0000  plane waves:    5396
 k-point 44 :   0.4388 0.4388 0.0000  plane waves:    5392
 k-point 45 :   0.4490 0.4490 0.0000  plane waves:    5390
 k-point 46 :   0.4592 0.4592 0.0000  plane waves:    5386
 k-point 47 :   0.4694 0.4694 0.0000  plane waves:    5392
 k-point 48 :   0.4796 0.4796 0.0000  plane waves:    5378
 k-point 49 :   0.4898 0.4898 0.0000  plane waves:    5380
 k-point 50 :   0.5000 0.5000 0.0000  plane waves:    5384
 k-point 51 :   0.5000 0.5000 0.0000  plane waves:    5384
 k-point 52 :   0.5034 0.4966 0.0000  plane waves:    5376
 k-point 53 :   0.5068 0.4932 0.0000  plane waves:    5380
 k-point 54 :   0.5102 0.4898 0.0000  plane waves:    5388
 k-point 55 :   0.5136 0.4864 0.0000  plane waves:    5392
 k-point 56 :   0.5170 0.4830 0.0000  plane waves:    5398
 k-point 57 :   0.5204 0.4796 0.0000  plane waves:    5398
 k-point 58 :   0.5238 0.4762 0.0000  plane waves:    5394
 k-point 59 :   0.5272 0.4728 0.0000  plane waves:    5388
 k-point 60 :   0.5306 0.4694 0.0000  plane waves:    5380
[...]
 k-point 85 :   0.6156 0.3844 0.0000  plane waves:    5364
 k-point 86 :   0.6190 0.3810 0.0000  plane waves:    5366
 k-point 87 :   0.6224 0.3776 0.0000  plane waves:    5360
 k-point 88 :   0.6259 0.3741 0.0000  plane waves:    5356
 k-point 89 :   0.6293 0.3707 0.0000  plane waves:    5356
 k-point 90 :   0.6327 0.3673 0.0000  plane waves:    5352
 k-point 91 :   0.6361 0.3639 0.0000  plane waves:    5348
 k-point 92 :   0.6395 0.3605 0.0000  plane waves:    5340
 k-point 93 :   0.6429 0.3571 0.0000  plane waves:    5328
 k-point 94 :   0.6463 0.3537 0.0000  plane waves:    5318
 k-point 95 :   0.6497 0.3503 0.0000  plane waves:    5322
 k-point 96 :   0.6531 0.3469 0.0000  plane waves:    5326
 k-point 97 :   0.6565 0.3435 0.0000  plane waves:    5334
 k-point 98 :   0.6599 0.3401 0.0000  plane waves:    5336
 k-point 99 :   0.6633 0.3367 0.0000  plane waves:    5334
 k-point ** :   0.6667 0.3333 0.0000  plane waves:    5334
 k-point ** :   0.6667 0.3333 0.0000  plane waves:    5334
 k-point ** :   0.6531 0.3265 0.0000  plane waves:    5334
 k-point ** :   0.6395 0.3197 0.0000  plane waves:    5336
 k-point ** :   0.6259 0.3129 0.0000  plane waves:    5330
 k-point ** :   0.6122 0.3061 0.0000  plane waves:    5336
 k-point ** :   0.5986 0.2993 0.0000  plane waves:    5346
 k-point ** :   0.5850 0.2925 0.0000  plane waves:    5350
 k-point ** :   0.5714 0.2857 0.0000  plane waves:    5362
 k-point ** :   0.5578 0.2789 0.0000  plane waves:    5366
 k-point ** :   0.5442 0.2721 0.0000  plane waves:    5368
 k-point ** :   0.5306 0.2653 0.0000  plane waves:    5368
 k-point ** :   0.5170 0.2585 0.0000  plane waves:    5366
 k-point ** :   0.5034 0.2517 0.0000  plane waves:    5360
 k-point ** :   0.4898 0.2449 0.0000  plane waves:    5364
 k-point ** :   0.4762 0.2381 0.0000  plane waves:    5364
 k-point ** :   0.4626 0.2313 0.0000  plane waves:    5358
 k-point ** :   0.4490 0.2245 0.0000  plane waves:    5364
 k-point ** :   0.4354 0.2177 0.0000  plane waves:    5360
 k-point ** :   0.4218 0.2109 0.0000  plane waves:    5360
 k-point ** :   0.4082 0.2041 0.0000  plane waves:    5378
 k-point ** :   0.3946 0.1973 0.0000  plane waves:    5384
 k-point ** :   0.3810 0.1905 0.0000  plane waves:    5390
 k-point ** :   0.3673 0.1837 0.0000  plane waves:    5396
 k-point ** :   0.3537 0.1769 0.0000  plane waves:    5394
 k-point ** :   0.3401 0.1701 0.0000  plane waves:    5394
 k-point ** :   0.3265 0.1633 0.0000  plane waves:    5407
 k-point ** :   0.3129 0.1565 0.0000  plane waves:    5403
 k-point ** :   0.2993 0.1497 0.0000  plane waves:    5403
 k-point ** :   0.2857 0.1429 0.0000  plane waves:    5405
 k-point ** :   0.2721 0.1361 0.0000  plane waves:    5401
 k-point ** :   0.2585 0.1293 0.0000  plane waves:    5405
 k-point ** :   0.2449 0.1224 0.0000  plane waves:    5409
 k-point ** :   0.2313 0.1156 0.0000  plane waves:    5405
 k-point ** :   0.2177 0.1088 0.0000  plane waves:    5413
 k-point ** :   0.2041 0.1020 0.0000  plane waves:    5405
 k-point ** :   0.1905 0.0952 0.0000  plane waves:    5403
 k-point ** :   0.1769 0.0884 0.0000  plane waves:    5411
 k-point ** :   0.1633 0.0816 0.0000  plane waves:    5409
 k-point ** :   0.1497 0.0748 0.0000  plane waves:    5417
 k-point ** :   0.1361 0.0680 0.0000  plane waves:    5429
 k-point ** :   0.1224 0.0612 0.0000  plane waves:    5413
 k-point ** :   0.1088 0.0544 0.0000  plane waves:    5403
 k-point ** :   0.0952 0.0476 0.0000  plane waves:    5411
 k-point ** :   0.0816 0.0408 0.0000  plane waves:    5405
 k-point ** :   0.0680 0.0340 0.0000  plane waves:    5401
 k-point ** :   0.0544 0.0272 0.0000  plane waves:    5401
 k-point ** :   0.0408 0.0204 0.0000  plane waves:    5403
 k-point ** :   0.0272 0.0136 0.0000  plane waves:    5421
 k-point ** :   0.0136 0.0068 0.0000  plane waves:    5409
 k-point ** :  -0.0000 0.0000 0.0000  plane waves:    5409

 maximum and minimum number of plane-waves per node :       916      864

 maximum number of plane-waves:      5429
 maximum index in each direction:
   IXMAX=    5   IYMAX=    5   IZMAX=   46
   IXMIN=   -6   IYMIN=   -6   IZMIN=  -46

 parallel 3D FFT for wavefunctions:
    minimum data exchange during FFTs selected (reduces bandwidth)
 parallel 3D FFT for charge:
    minimum data exchange during FFTs selected (reduces bandwidth)

 initial charge density was supplied:
 number of electron       8.0000000 magnetization
 keeping initial charge density in first step

 Maximum index for augmentation-charges         3260 (set IRDMAX)

 First call to EWALD:  gamma=   0.376
 Maximum number of real-space cells 5x 5x 1
 Maximum number of reciprocal cells 2x 2x10

--------------------------------------- Iteration      1(   1)  ---------------------------------------

 eigenvalue-minimisations  :  3600
 total energy-change (2. order) : 0.3461776E+02  (-0.3624133E+03)
 number of electron       8.0000000 magnetization
 augmentation part        8.0000000 magnetization

 Free energy of the ion-electron system (eV)
  alpha Z        PSCENC =         3.11066570
  Ewald energy   TEWEN  =      1303.03316907
  -Hartree energ DENC   =     -1550.04162380
  -exchange      EXHF   =         0.00000000
  -V(xc)+E(xc)   XCENC  =        28.81788278
  PAW double counting   =       139.92153390     -142.50204108
  entropy T*S    EENTRO =        -0.00013528
  eigenvalues    EBANDS =       -42.03054281
  atomic energy  EATOM  =       294.30884690
  Solvation  Ediel_sol  =         0.00000000
  free energy    TOTEN  =        34.61775537 eV

  energy without entropy =       34.61789065  energy(sigma->0) =       34.61782301

[...]

 eigenvalue-minimisations  :  5076
 total energy-change (2. order) :-0.4941932E+02  (-0.3855639E+02)
 number of electron       8.0000000 magnetization
 augmentation part        8.0000000 magnetization

[...]

--------------------------------------- Iteration      1(   7)  ---------------------------------------

 eigenvalue-minimisations  :  5412
 total energy-change (2. order) :-0.2066827E-09  (-0.1224872E-09)
 number of electron       8.0000000 magnetization
 augmentation part        8.0000000 magnetization

 Free energy of the ion-electron system (eV)
  alpha Z        PSCENC =         3.11066570
  Ewald energy   TEWEN  =      1303.03316907
  -Hartree energ DENC   =     -1550.04162380
  -exchange      EXHF   =         0.00000000
  -V(xc)+E(xc)   XCENC  =        28.81788278
  PAW double counting   =       139.92153390     -142.50204108
  entropy T*S    EENTRO =        -0.00015045
  eigenvalues    EBANDS =       -94.00296577
  atomic energy  EATOM  =       294.30884690
  Solvation  Ediel_sol  =         0.00000000
  free energy    TOTEN  =       -17.35468276 eV

  energy without entropy =      -17.35453231  energy(sigma->0) =      -17.35460753

 average (electrostatic) potential at core
  the test charge radii are     0.6991
  (the norm of the test charge is              1.0000)
       1 -58.1430       2 -58.1430

 E-fermi :  -2.7218     XC(G=0):  -2.1512     alpha+bet : -1.9163

 k-point     1 :       0.0000    0.0000    0.0000
  band No.  band energies     occupation
      1     -22.2970      2.00000
      2     -10.3902      2.00000
      3      -5.7500      2.00000
      4      -5.7500      2.00000
      5       0.5267      0.00000
      6       1.3287      0.00000
      7       1.6977      0.00000
      8       2.6053      0.00000
      9       3.0684      0.00000
     10       4.7282      0.00000
     11       5.3501      0.00000
     12       5.6502      0.00000

[...]

 k-point   150 :      -0.0000    0.0000    0.0000
  band No.  band energies     occupation
      1     -22.2970      2.00000
      2     -10.3902      2.00000
      3      -5.7500      2.00000
      4      -5.7500      2.00000
      5       0.5267      0.00000
      6       1.3287      0.00000
      7       1.6977      0.00000
      8       2.6053      0.00000
      9       3.0684      0.00000
     10       4.7282      0.00000
     11       5.3501      0.00000
     12       5.6501      0.00000

 soft charge-density along one line, spin component           1
         0         1         2         3         4         5         6         7         8         9
 total charge-density along one line

------------------------ aborting loop because EDIFF is reached ----------------------------------------

  FORCE on cell =-STRESS in cart. coord.  units (eV):
  Direction    XX          YY          ZZ          XY          YZ          ZX
  Alpha Z     3.11067     3.11067     3.11067
  Ewald    1572.61546  1572.61484 -1842.19716     0.00000     0.00000    -0.00000
  Hartree  1540.20598  1540.20597 -1528.53258    -0.00000     0.00000    -0.00000
  E(xc)     -29.22519   -29.22519   -30.39745     0.00000    -0.00000    -0.00000
  Local   -3198.87744 -3198.87713  3268.16558     0.00000     0.00000     0.00000
  n-local    -8.04666    -7.92434    -7.32696     0.16302    -0.00000     0.00000
  augment    -0.82311    -0.82311    -0.75030    -0.00000     0.00000    -0.00000
  Kinetic   125.77745   120.09321   138.70049    -1.47135     0.00000    -0.00000
  Fock        0.00000     0.00000     0.00000     0.00000     0.00000     0.00000
  Total       1.95603     1.95603     0.77229     0.00000     0.00000    -0.00000
  in kB      29.91073    29.91072    11.80952     0.00000     0.00000    -0.00000

 VOLUME and BASIS-vectors are now :
  energy-cutoff  :      800.00
  volume of cell :      104.78
      direct lattice vectors                 reciprocal lattice vectors
     2.130000000 -1.229756000  0.000000000     0.234741784 -0.406584721  0.000000000
     2.130000000  1.229756000  0.000000000     0.234741784  0.406584721  0.000000000
     0.000000000  0.000000000 20.000000000     0.000000000  0.000000000  0.050000000

  length of vectors
     2.459512110  2.459512110 20.000000000     0.469483589  0.469483589  0.050000000

 FORCES acting on ions
    electron-ion (+dipol)            ewald-force                    non-local-force                 convergence-correction
   0.392E-06 0.382E-13 -.150E-08   -.241E-03 0.675E-14 -.161E-22   0.312E-15 0.451E-16 -.207E-24   -.123E-06 -.725E-14 0.781E-11
   0.276E-03 -.171E-12 0.150E-08   0.241E-03 -.447E-14 0.161E-22   -.381E-15 -.291E-16 0.207E-24   -.391E-06 0.138E-13 0.283E-11
   0.276E-03 -.133E-12 0.189E-11   0.429E-14 0.228E-14 0.000E+00   -.693E-16 0.160E-16 0.000E+00   -.513E-06 0.653E-14 0.106E-10

 POSITION                                       TOTAL-FORCE (eV/Angst)
      0.00000      0.00000      0.00000        -0.000000      0.000000      0.000000
      1.42000      0.00000      0.00000         0.000000     -0.000000      0.000000
    total drift:                                0.000275     -0.000000      0.000000

  FREE ENERGIE OF THE ION-ELECTRON SYSTEM (eV)
  free  energy   TOTEN  =       -17.35468276 eV

  energy  without entropy=      -17.35453231  energy(sigma->0) =      -17.35460753