 vasp.5.4.4.18Apr17-6-g9f103f2a35 (build May 31 2018 21:15:54) complex

 executed on          c7_intel_O1 date 2020.08.12  12:19:42

 INCAR:
 POTCAR:   PAW_PBE W 08Apr2002
 POTCAR:   PAW_PBE Se 06Sep2000
 POTCAR:   PAW_PBE W 08Apr2002
   VRHFIN =W : 6s5d

   TITEL  = PAW_PBE W 08Apr2002
   POMASS =  183.850; ZVAL   =    6.000    mass and valenz
   ENMAX  =  223.057; ENMIN  =  167.293 eV
   QCUT   =   -4.049; QGAM   =    8.098    optimization parameters

   Description
     l     E      TYP  RCUT    TYP  RCUT
     2   .000     23  2.500
     2   .000     23  2.500
     0   .000     23  2.500
     0   .000     23  2.500
     1   .200     23  2.750
     1  2.000     23  2.750
     3   .000      7   .000

 POTCAR:   PAW_PBE Se 06Sep2000
   VRHFIN =Se: s2p4

   TITEL  = PAW_PBE Se 06Sep2000
   POMASS =   78.960; ZVAL   =    6.000    mass and valenz
   ENMAX  =  211.534; ENMIN  =  158.651 eV
   QCUT   =   -3.943; QGAM   =    7.886    optimization parameters

   Description
     l     E      TYP  RCUT    TYP  RCUT
     0   .000     23  2.100
     0   .000     23  2.100
     1   .000     23  2.100
     1   .000     23  2.100
     2   .000     23  2.100
     3  -.100      7  2.100

 WARNING: PSMAXN for non-local potential too small
          PSMAXN should be >   14.4904333269122       NTYP=           1
 PAW_PBE W 08Apr2002                    :
 PAW_PBE Se 06Sep2000                   :

 POSCAR: WSe2 Mono
  positions in direct lattice
  velocities in cartesian coordinates
 exchange correlation table for  LEXCH =        8
   RHO(1)=    0.500       N(1)  =     2000
   RHO(2)=  100.500       N(2)  =     4000

 ion  position               nearest neighbor table
   1  1.000  0.000  0.000-   2 2.54   3 2.54   2 2.54   3 2.54   2 2.54   3 2.54
   2  0.333  0.333  0.915-   1 2.54   1 2.54   1 2.54
   3  0.333  0.333  0.085-   1 2.54   1 2.54   1 2.54

  LATTYP: Found a base centered orthorhombic cell.
 ALAT       =     3.2820000000
 B/A-ratio  =     1.7309445460
 C/A-ratio  =     6.0938452163

  Lattice vectors:

 A1 = (  -1.6410000000,  -2.8404800000,   0.0000000000)
 A2 = (  -1.6410000000,   2.8404800000,   0.0000000000)
 A3 = (   0.0000000000,   0.0000000000, -20.0000000000)

Analysis of symmetry for initial positions (statically):
 Subroutine PRICEL returns:
 Original cell was already a primitive cell.

 Routine SETGRP: Setting up the symmetry group for a
 base centered orthorhombic supercell.

 Subroutine GETGRP returns: Found  4 space group operations
 (whereof  4 operations were pure point group operations)
 out of a pool of  8 trial point group operations.

The static configuration has the point symmetry C_2v.

Analysis of symmetry for dynamics (positions and initial velocities):
 Subroutine PRICEL returns:
 Original cell was already a primitive cell.

 Routine SETGRP: Setting up the symmetry group for a
 base centered orthorhombic supercell.

 Subroutine GETGRP returns: Found  4 space group operations
 (whereof  4 operations were pure point group operations)
 out of a pool of  8 trial point group operations.

The dynamic configuration has the point symmetry C_2v.

 Subroutine INISYM returns: Found  4 space group operations
 (whereof  4 operations are pure point group operations),
 and found     1 'primitive' translations

 KPOINTS: W-1, Se-2

Automatic generation of k-mesh.
Space group operators:
 irot       det(A)        alpha          n_x          n_y          n_z        tau_x        tau_y        tau_z
    1     1.000000     0.000000     1.000000     0.000000     0.000000     0.000000     0.000000     0.000000
    2    -1.000000   180.000000     0.000000     0.000000     1.000000     0.000000     0.000000     0.000000
    3     1.000000   180.000000     0.000000     1.000000     0.000000     0.000000     0.000000     0.000000
    4    -1.000000   180.000000     1.000000    -0.000000     0.000000     0.000000     0.000000     0.000000

 Subroutine IBZKPT returns following result:

 Found    463 irreducible k-points:

 Following reciprocal coordinates:
            Coordinates               Weight
  0.000000  0.000000  0.000000      1.000000
  0.023810  0.000000  0.000000      4.000000
  0.047619  0.000000  0.000000      4.000000
  0.071429  0.000000  0.000000      4.000000
  0.095238  0.000000  0.000000      4.000000
  0.119048  0.000000  0.000000      4.000000
  0.142857  0.000000  0.000000      4.000000
  0.166667  0.000000  0.000000      4.000000
  0.190476  0.000000  0.000000      4.000000
  0.214286  0.000000  0.000000      4.000000
  0.238095  0.000000  0.000000      4.000000
  0.261905  0.000000  0.000000      4.000000
  0.285714  0.000000  0.000000      4.000000
  0.309524  0.000000  0.000000      4.000000
  0.333333  0.000000  0.000000      4.000000
  0.357143  0.000000  0.000000      4.000000
  0.380952  0.000000  0.000000      4.000000
  0.404762  0.000000  0.000000      4.000000
  0.428571  0.000000  0.000000      4.000000
  0.452381  0.000000  0.000000      4.000000
  0.476190  0.000000  0.000000      4.000000
  0.500000  0.000000  0.000000      2.000000
  0.000000  0.023810  0.000000      2.000000
  0.047619  0.023810  0.000000      2.000000
  0.071429  0.023810  0.000000      4.000000
  0.095238  0.023810  0.000000      4.000000
  0.119048  0.023810  0.000000      4.000000
  0.142857  0.023810  0.000000      4.000000
  0.166667  0.023810  0.000000      4.000000
  0.190476  0.023810  0.000000      4.000000
  0.214286  0.023810  0.000000      4.000000
  0.238095  0.023810  0.000000      4.000000
  0.261905  0.023810  0.000000      4.000000
  0.285714  0.023810  0.000000      4.000000
  0.309524  0.023810  0.000000      4.000000
  0.333333  0.023810  0.000000      4.000000
  0.357143  0.023810  0.000000      4.000000
  0.380952  0.023810  0.000000      4.000000
  0.404762  0.023810  0.000000      4.000000
  0.428571  0.023810  0.000000      4.000000
  0.452381  0.023810  0.000000      4.000000
  0.476190  0.023810  0.000000      4.000000
  0.500000  0.023810  0.000000      4.000000
 -0.476190  0.023810  0.000000      4.000000
 -0.452381  0.023810  0.000000      4.000000
 -0.428571  0.023810  0.000000      4.000000
 -0.404762  0.023810  0.000000      4.000000
 -0.380952  0.023810  0.000000      4.000000
 -0.357143  0.023810  0.000000      4.000000
 -0.333333  0.023810  0.000000      4.000000
 -0.309524  0.023810  0.000000      4.000000
 -0.285714  0.023810  0.000000      4.000000
 -0.261905  0.023810  0.000000      4.000000
 -0.238095  0.023810  0.000000      4.000000
 -0.214286  0.023810  0.000000      4.000000
 -0.190476  0.023810  0.000000      4.000000
 -0.166667  0.023810  0.000000      4.000000
 -0.142857  0.023810  0.000000      4.000000
 -0.119048  0.023810  0.000000      4.000000
 -0.095238  0.023810  0.000000      4.000000
[...]
 -0.142857  0.428571  0.000000      2.000000
 -0.119048  0.428571  0.000000      4.000000
 -0.095238  0.428571  0.000000      4.000000
 -0.071429  0.428571  0.000000      4.000000
 -0.047619  0.428571  0.000000      4.000000
 -0.023810  0.428571  0.000000      4.000000
  0.000000  0.452381  0.000000      2.000000
 -0.095238  0.452381  0.000000      2.000000
 -0.071429  0.452381  0.000000      4.000000
 -0.047619  0.452381  0.000000      4.000000
 -0.023810  0.452381  0.000000      4.000000
  0.000000  0.476190  0.000000      2.000000
 -0.047619  0.476190  0.000000      2.000000
 -0.023810  0.476190  0.000000      4.000000
  0.000000  0.500000  0.000000      1.000000

 Following cartesian coordinates:
            Coordinates               Weight
  0.000000  0.000000  0.000000      1.000000
  0.007255 -0.004191  0.000000      4.000000
  0.014509 -0.008382  0.000000      4.000000
  0.021764 -0.012573  0.000000      4.000000
  0.029018 -0.016764  0.000000      4.000000
  0.036273 -0.020956  0.000000      4.000000
  0.043527 -0.025147  0.000000      4.000000
  0.050782 -0.029338  0.000000      4.000000
  0.058037 -0.033529  0.000000      4.000000
  0.065291 -0.037720  0.000000      4.000000
  0.072546 -0.041911  0.000000      4.000000
  0.079800 -0.046102  0.000000      4.000000
  0.087055 -0.050293  0.000000      4.000000
  0.094310 -0.054484  0.000000      4.000000
  0.101564 -0.058676  0.000000      4.000000
  0.108819 -0.062867  0.000000      4.000000
  0.116073 -0.067058  0.000000      4.000000
  0.123328 -0.071249  0.000000      4.000000
  0.130582 -0.075440  0.000000      4.000000
  0.137837 -0.079631  0.000000      4.000000
  0.145092 -0.083822  0.000000      4.000000
  0.152346 -0.088013  0.000000      2.000000
  0.000000  0.008382  0.000000      2.000000
  0.014509  0.000000  0.000000      2.000000
  0.021764 -0.004191  0.000000      4.000000
  0.029018 -0.008382  0.000000      4.000000
  0.036273 -0.012573  0.000000      4.000000
  0.043527 -0.016764  0.000000      4.000000
  0.050782 -0.020956  0.000000      4.000000
  0.058037 -0.025147  0.000000      4.000000
  0.065291 -0.029338  0.000000      4.000000
  0.072546 -0.033529  0.000000      4.000000
  0.079800 -0.037720  0.000000      4.000000
  0.087055 -0.041911  0.000000      4.000000
  0.094310 -0.046102  0.000000      4.000000
  0.101564 -0.050293  0.000000      4.000000
  0.108819 -0.054484  0.000000      4.000000
  0.116073 -0.058676  0.000000      4.000000
  0.123328 -0.062867  0.000000      4.000000
  0.130582 -0.067058  0.000000      4.000000
  0.137837 -0.071249  0.000000      4.000000
  0.145092 -0.075440  0.000000      4.000000
  0.152346 -0.079631  0.000000      4.000000
 -0.145092  0.092204  0.000000      4.000000
 -0.137837  0.088013  0.000000      4.000000
 -0.130582  0.083822  0.000000      4.000000
 -0.123328  0.079631  0.000000      4.000000
 -0.116073  0.075440  0.000000      4.000000
 -0.108819  0.071249  0.000000      4.000000
 -0.101564  0.067058  0.000000      4.000000
 -0.094310  0.062867  0.000000      4.000000
 -0.087055  0.058676  0.000000      4.000000
 -0.079800  0.054484  0.000000      4.000000
 -0.072546  0.050293  0.000000      4.000000
 -0.065291  0.046102  0.000000      4.000000
 -0.058037  0.041911  0.000000      4.000000
 -0.050782  0.037720  0.000000      4.000000
 -0.043527  0.033529  0.000000      4.000000
 -0.036273  0.029338  0.000000      4.000000
 -0.029018  0.025147  0.000000      4.000000
[...]
 -0.043527  0.176027  0.000000      2.000000
 -0.036273  0.171835  0.000000      4.000000
 -0.029018  0.167644  0.000000      4.000000
 -0.021764  0.163453  0.000000      4.000000
 -0.014509  0.159262  0.000000      4.000000
 -0.007255  0.155071  0.000000      4.000000
  0.000000  0.159262  0.000000      2.000000
 -0.029018  0.176027  0.000000      2.000000
 -0.021764  0.171835  0.000000      4.000000
 -0.014509  0.167644  0.000000      4.000000
 -0.007255  0.163453  0.000000      4.000000
  0.000000  0.167644  0.000000      2.000000
 -0.014509  0.176027  0.000000      2.000000
 -0.007255  0.171835  0.000000      4.000000
  0.000000  0.176027  0.000000      1.000000

 SYSTEM =  W-1, se-2
 POSCAR =  WSe2 Mono

 Startparameter for this run:
   NWRITE =      2    write-flag & timer
   PREC   = accura    normal or accurate (medium, high low for compatibility)
   ISTART =      0    job   : 0-new  1-cont  2-samecut
[...]
 k-point 11 :   0.2381 0.0000 0.0000  plane waves:    9641
 k-point 12 :   0.2619 0.0000 0.0000  plane waves:    9641
 k-point 13 :   0.2857 0.0000 0.0000  plane waves:    9615
 k-point 14 :   0.3095 0.0000 0.0000  plane waves:    9609
 k-point 15 :   0.3333 0.0000 0.0000  plane waves:    9595
 k-point 16 :   0.3571 0.0000 0.0000  plane waves:    9593
 k-point 17 :   0.3810 0.0000 0.0000  plane waves:    9581
 k-point 18 :   0.4048 0.0000 0.0000  plane waves:    9571
 k-point 19 :   0.4286 0.0000 0.0000  plane waves:    9545
 k-point 20 :   0.4524 0.0000 0.0000  plane waves:    9546
 k-point 21 :   0.4762 0.0000 0.0000  plane waves:    9540
 k-point 22 :   0.5000 0.0000 0.0000  plane waves:    9554
 k-point 23 :   0.0000 0.0238 0.0000  plane waves:    9599
 k-point 24 :   0.0476 0.0238 0.0000  plane waves:    9595
 k-point 25 :   0.0714 0.0238 0.0000  plane waves:    9606
 k-point 26 :   0.0952 0.0238 0.0000  plane waves:    9609
 k-point 27 :   0.1190 0.0238 0.0000  plane waves:    9627
 k-point 28 :   0.1429 0.0238 0.0000  plane waves:    9631
 k-point 29 :   0.1667 0.0238 0.0000  plane waves:    9629
 k-point 30 :   0.1905 0.0238 0.0000  plane waves:    9641
 k-point 31 :   0.2143 0.0238 0.0000  plane waves:    9633
 k-point 32 :   0.2381 0.0238 0.0000  plane waves:    9629
 k-point 33 :   0.2619 0.0238 0.0000  plane waves:    9631
 k-point 34 :   0.2857 0.0238 0.0000  plane waves:    9611
 k-point 35 :   0.3095 0.0238 0.0000  plane waves:    9613
 k-point 36 :   0.3333 0.0238 0.0000  plane waves:    9596
 k-point 37 :   0.3571 0.0238 0.0000  plane waves:    9583
 k-point 38 :   0.3810 0.0238 0.0000  plane waves:    9595
 k-point 39 :   0.4048 0.0238 0.0000  plane waves:    9577
 k-point 40 :   0.4286 0.0238 0.0000  plane waves:    9554
 k-point 41 :   0.4524 0.0238 0.0000  plane waves:    9550
 k-point 42 :   0.4762 0.0238 0.0000  plane waves:    9550
 k-point 43 :   0.5000 0.0238 0.0000  plane waves:    9557
 k-point 44 :  -0.4762 0.0238 0.0000  plane waves:    9557
 k-point 45 :  -0.4524 0.0238 0.0000  plane waves:    9546
 k-point 46 :  -0.4286 0.0238 0.0000  plane waves:    9544
 k-point 47 :  -0.4048 0.0238 0.0000  plane waves:    9560
 k-point 48 :  -0.3810 0.0238 0.0000  plane waves:    9575
 k-point 49 :  -0.3571 0.0238 0.0000  plane waves:    9589
 k-point 50 :  -0.3333 0.0238 0.0000  plane waves:    9583
 k-point 51 :  -0.3095 0.0238 0.0000  plane waves:    9602
 k-point 52 :  -0.2857 0.0238 0.0000  plane waves:    9617
 k-point 53 :  -0.2619 0.0238 0.0000  plane waves:    9613
 k-point 54 :  -0.2381 0.0238 0.0000  plane waves:    9629
 k-point 55 :  -0.2143 0.0238 0.0000  plane waves:    9633
 k-point 56 :  -0.1905 0.0238 0.0000  plane waves:    9633
 k-point 57 :  -0.1667 0.0238 0.0000  plane waves:    9643
 k-point 58 :  -0.1429 0.0238 0.0000  plane waves:    9627
 k-point 59 :  -0.1190 0.0238 0.0000  plane waves:    9641
 k-point 60 :  -0.0952 0.0238 0.0000  plane waves:    9625
[...]
 k-point 85 :  -0.4286 0.0476 0.0000  plane waves:    9558
 k-point 86 :  -0.4048 0.0476 0.0000  plane waves:    9557
 k-point 87 :  -0.3810 0.0476 0.0000  plane waves:    9572
 k-point 88 :  -0.3571 0.0476 0.0000  plane waves:    9584
 k-point 89 :  -0.3333 0.0476 0.0000  plane waves:    9591
 k-point 90 :  -0.3095 0.0476 0.0000  plane waves:    9587
 k-point 91 :  -0.2857 0.0476 0.0000  plane waves:    9602
 k-point 92 :  -0.2619 0.0476 0.0000  plane waves:    9615
 k-point 93 :  -0.2381 0.0476 0.0000  plane waves:    9613
 k-point 94 :  -0.2143 0.0476 0.0000  plane waves:    9629
 k-point 95 :  -0.1905 0.0476 0.0000  plane waves:    9623
 k-point 96 :  -0.1667 0.0476 0.0000  plane waves:    9641
 k-point 97 :  -0.1429 0.0476 0.0000  plane waves:    9633
 k-point 98 :  -0.1190 0.0476 0.0000  plane waves:    9623
 k-point 99 :  -0.0952 0.0476 0.0000  plane waves:    9615
 k-point ** :  -0.0714 0.0476 0.0000  plane waves:    9622
 k-point ** :  -0.0476 0.0476 0.0000  plane waves:    9613
 k-point ** :  -0.0238 0.0476 0.0000  plane waves:    9601
 k-point ** :   0.0000 0.0714 0.0000  plane waves:    9631
 k-point ** :   0.1429 0.0714 0.0000  plane waves:    9613
 k-point ** :   0.1667 0.0714 0.0000  plane waves:    9602
 k-point ** :   0.1905 0.0714 0.0000  plane waves:    9602
 k-point ** :   0.2143 0.0714 0.0000  plane waves:    9619
 k-point ** :   0.2381 0.0714 0.0000  plane waves:    9635
 k-point ** :   0.2619 0.0714 0.0000  plane waves:    9623
 k-point ** :   0.2857 0.0714 0.0000  plane waves:    9621
 k-point ** :   0.3095 0.0714 0.0000  plane waves:    9611
 k-point ** :   0.3333 0.0714 0.0000  plane waves:    9599
 k-point ** :   0.3571 0.0714 0.0000  plane waves:    9602
 k-point ** :   0.3810 0.0714 0.0000  plane waves:    9591
 k-point ** :   0.4048 0.0714 0.0000  plane waves:    9586
 k-point ** :   0.4286 0.0714 0.0000  plane waves:    9572
 k-point ** :   0.4524 0.0714 0.0000  plane waves:    9565
 k-point ** :   0.4762 0.0714 0.0000  plane waves:    9553
 k-point ** :   0.5000 0.0714 0.0000  plane waves:    9561
 k-point ** :  -0.4762 0.0714 0.0000  plane waves:    9557
 k-point ** :  -0.4524 0.0714 0.0000  plane waves:    9552
 k-point ** :  -0.4286 0.0714 0.0000  plane waves:    9561
 k-point ** :  -0.4048 0.0714 0.0000  plane waves:    9557
 k-point ** :  -0.3810 0.0714 0.0000  plane waves:    9565
 k-point ** :  -0.3571 0.0714 0.0000  plane waves:    9574
 k-point ** :  -0.3333 0.0714 0.0000  plane waves:    9582
 k-point ** :  -0.3095 0.0714 0.0000  plane waves:    9585
 k-point ** :  -0.2857 0.0714 0.0000  plane waves:    9602
 k-point ** :  -0.2619 0.0714 0.0000  plane waves:    9597
 k-point ** :  -0.2381 0.0714 0.0000  plane waves:    9613
 k-point ** :  -0.2143 0.0714 0.0000  plane waves:    9621
 k-point ** :  -0.1905 0.0714 0.0000  plane waves:    9623
 k-point ** :  -0.1667 0.0714 0.0000  plane waves:    9633
 k-point ** :  -0.1429 0.0714 0.0000  plane waves:    9623
 k-point ** :  -0.1190 0.0714 0.0000  plane waves:    9606
 k-point ** :  -0.0952 0.0714 0.0000  plane waves:    9611
 k-point ** :  -0.0714 0.0714 0.0000  plane waves:    9605
 k-point ** :  -0.0476 0.0714 0.0000  plane waves:    9616
 k-point ** :  -0.0238 0.0714 0.0000  plane waves:    9609
 k-point ** :   0.0000 0.0952 0.0000  plane waves:    9617
 k-point ** :   0.1905 0.0952 0.0000  plane waves:    9605
 k-point ** :   0.2143 0.0952 0.0000  plane waves:    9619
 k-point ** :   0.2381 0.0952 0.0000  plane waves:    9628
 k-point ** :   0.2619 0.0952 0.0000  plane waves:    9612
 k-point ** :   0.2857 0.0952 0.0000  plane waves:    9613
 k-point ** :   0.3095 0.0952 0.0000  plane waves:    9619
 k-point ** :   0.3333 0.0952 0.0000  plane waves:    9605
 k-point ** :   0.3571 0.0952 0.0000  plane waves:    9594
 k-point ** :   0.3810 0.0952 0.0000  plane waves:    9578
 k-point ** :   0.4048 0.0952 0.0000  plane waves:    9574
 k-point ** :   0.4286 0.0952 0.0000  plane waves:    9574
 k-point ** :   0.4524 0.0952 0.0000  plane waves:    9575
 k-point ** :   0.4762 0.0952 0.0000  plane waves:    9563
 k-point ** :   0.5000 0.0952 0.0000  plane waves:    9569
 k-point ** :  -0.4762 0.0952 0.0000  plane waves:    9565
 k-point ** :  -0.4524 0.0952 0.0000  plane waves:    9558
 k-point ** :  -0.4286 0.0952 0.0000  plane waves:    9563
 k-point ** :  -0.4048 0.0952 0.0000  plane waves:    9565
 k-point ** :  -0.3810 0.0952 0.0000  plane waves:    9563
[...]
 k-point ** :  -0.1429 0.4286 0.0000  plane waves:    9558
 k-point ** :  -0.1190 0.4286 0.0000  plane waves:    9562
 k-point ** :  -0.0952 0.4286 0.0000  plane waves:    9561
 k-point ** :  -0.0714 0.4286 0.0000  plane waves:    9561
 k-point ** :  -0.0476 0.4286 0.0000  plane waves:    9550
 k-point ** :  -0.0238 0.4286 0.0000  plane waves:    9548
 k-point ** :   0.0000 0.4524 0.0000  plane waves:    9538
 k-point ** :  -0.0952 0.4524 0.0000  plane waves:    9554
 k-point ** :  -0.0714 0.4524 0.0000  plane waves:    9556
 k-point ** :  -0.0476 0.4524 0.0000  plane waves:    9555
 k-point ** :  -0.0238 0.4524 0.0000  plane waves:    9548
 k-point ** :   0.0000 0.4762 0.0000  plane waves:    9538
 k-point ** :  -0.0476 0.4762 0.0000  plane waves:    9552
 k-point ** :  -0.0238 0.4762 0.0000  plane waves:    9555
 k-point ** :   0.0000 0.5000 0.0000  plane waves:    9550

 maximum and minimum number of plane-waves per node :      1629     1571

 maximum number of plane-waves:      9643
 maximum index in each direction:
   IXMAX=    8   IYMAX=    7   IZMAX=   46
   IXMIN=   -8   IYMIN=   -8   IZMIN=  -46

 parallel 3D FFT for wavefunctions:
    minimum data exchange during FFTs selected (reduces bandwidth)
 parallel 3D FFT for charge:
    minimum data exchange during FFTs selected (reduces bandwidth)

 Broyden mixing: mesh for mixing (old mesh)
   NGX = 15   NGY = 15   NGZ = 93
  (NGX  = 60   NGY  = 60   NGZ  =384)
  gives a total of  20925 points

 initial charge density was supplied:
 number of electron      18.0000000 magnetization
 keeping initial charge density in first step

 Maximum index for augmentation-charges        15399 (set IRDMAX)

 First call to EWALD:  gamma=   0.310
 Maximum number of real-space cells 5x 5x 1
 Maximum number of reciprocal cells 2x 2x 8

--------------------------------------- Iteration      1(   1)  ---------------------------------------

 eigenvalue-minimisations  : 16668
 total energy-change (2. order) : 0.1202385E+03  (-0.7663629E+03)
 number of electron      18.0000000 magnetization
 augmentation part       18.0000000 magnetization

 Free energy of the ion-electron system (eV)
  alpha Z        PSCENC =        22.94334738
  Ewald energy   TEWEN  =      2158.26868162
  -Hartree energ DENC   =     -2831.72972898
  -exchange      EXHF   =         0.00000000
  -V(xc)+E(xc)   XCENC  =       -47.72561513
  PAW double counting   =       466.06406211     -380.94982486
  entropy T*S    EENTRO =        -0.00941517
  eigenvalues    EBANDS =        14.83893242
  atomic energy  EATOM  =       718.53809099
  Solvation  Ediel_sol  =         0.00000000
  free energy    TOTEN  =       120.23853040 eV

  energy without entropy =      120.24794557  energy(sigma->0) =      120.24323798

[...]

 eigenvalue-minimisations  : 26904
 total energy-change (2. order) :-0.1301312E+03  (-0.1218296E+03)
 number of electron      18.0000000 magnetization
 augmentation part       18.0000000 magnetization

[...]

 eigenvalue-minimisations  : 22758
 total energy-change (2. order) :-0.1836575E-02  (-0.1836489E-02)
 number of electron      18.0000000 magnetization
 augmentation part       -1.5321393 magnetization

 Broyden mixing:
  rms(total) = 0.70423E-03    rms(broyden)= 0.70423E-03
  rms(prec ) = 0.73743E-03
  weight for this iteration     100.00

[...]

 eigenvalues of (default mixing * dielectric matrix)
  average eigenvalue GAMMA=   0.6874
  0.6874

[...]

 Broyden mixing:
  rms(total) = 0.20323E-03    rms(broyden)= 0.20323E-03
  rms(prec ) = 0.21104E-03
  weight for this iteration     100.00

 eigenvalues of (default mixing * dielectric matrix)
  average eigenvalue GAMMA=   0.6381
  0.6381  0.6381

[...]

--------------------------------------- Iteration      1(   8)  ---------------------------------------

 eigenvalue-minimisations  : 23970
 total energy-change (2. order) : 0.5306561E-08  (-0.6240951E-08)
 number of electron      18.0000000 magnetization
 augmentation part       -1.5320787 magnetization

 Free energy of the ion-electron system (eV)
  alpha Z        PSCENC =        22.94334738
  Ewald energy   TEWEN  =      2158.26868162
  -Hartree energ DENC   =     -2831.72907820
  -exchange      EXHF   =         0.00000000
  -V(xc)+E(xc)   XCENC  =       -47.72551108
  PAW double counting   =       466.08084254     -380.96720354
  entropy T*S    EENTRO =        -0.00000000
  eigenvalues    EBANDS =      -127.04155262
  atomic energy  EATOM  =       718.53809099
  Solvation  Ediel_sol  =         0.00000000
  free energy    TOTEN  =       -21.63238292 eV

  energy without entropy =      -21.63238292  energy(sigma->0) =      -21.63238292

 average (electrostatic) potential at core
  the test charge radii are     1.1823  1.0808
  (the norm of the test charge is              1.0000)
       1 -47.5181       2 -60.1209       3 -60.1209

 E-fermi :  -1.3860     XC(G=0):  -3.9920     alpha+bet : -3.5498

 k-point     1 :       0.0000    0.0000    0.0000
  band No.  band energies     occupation
      1     -16.5475      2.00000
      2     -15.3661      2.00000
      3      -8.0046      2.00000
      4      -4.0500      2.00000
      5      -4.0462      2.00000
      6      -4.0390      2.00000
      7      -2.9151      2.00000
      8      -2.9103      2.00000
      9      -2.2359      2.00000
     10       1.2287      0.00000
     11       1.2324      0.00000
     12       1.3696      0.00000
     13       1.3761      0.00000
     14       2.4996      0.00000
     15       2.9596      0.00000
     16       3.4441      0.00000
     17       4.1612      0.00000
     18       4.9131      0.00000

[...]

 k-point   463 :       0.0000    0.5000    0.0000
  band No.  band energies     occupation
      1     -14.5361      2.00000
      2     -14.3057      2.00000
      3      -8.1423      2.00000
      4      -6.9483      2.00000
      5      -5.9646      2.00000
      6      -4.7144      2.00000
      7      -3.9900      2.00000
      8      -2.7926      2.00000
      9      -2.6102      2.00000
     10       0.6855      0.00000
     11       1.0043      0.00000
     12       1.9435      0.00000
     13       2.6012      0.00000
     14       2.6587      0.00000
     15       5.2873      0.00000
     16       5.2912      0.00000
     17       6.4161      0.00000
     18       6.9246      0.00000

 soft charge-density along one line, spin component           1
         0         1         2         3         4         5         6         7         8         9
 total charge-density along one line

------------------------ aborting loop because EDIFF is reached ----------------------------------------

  FORCE on cell =-STRESS in cart. coord.  units (eV):
  Direction    XX          YY          ZZ          XY          YZ          ZX
  Alpha Z    22.94335    22.94335    22.94335
  Ewald    2703.62692  2703.71518 -3249.07350    -0.00000     0.00000     0.00000
  Hartree  2805.80812  2805.84018 -2779.91783     0.00000    -0.00000    -0.00000
  E(xc)     -71.38523   -71.38750   -72.23274     0.00000    -0.00000    -0.00000
  Local   -5748.04041 -5748.16668  5788.32692     0.00000    -0.00000     0.00000
  n-local    69.48074    69.47947    74.89795    -0.00898    -0.00000     0.00000
  augment    -2.78694    -2.78608    -3.50629    -0.00000     0.00000    -0.00000
  Kinetic   221.27519   221.32338   218.56307     5.32766     0.00000     0.00000
  Fock        0.00000     0.00000     0.00000     0.00000     0.00000     0.00000
  Total       0.92174     0.96130     0.00093     0.00000     0.00000     0.00000
  in kB       7.92062     8.26054     0.00801     0.00000     0.00000     0.00000

 VOLUME and BASIS-vectors are now :
  energy-cutoff  :      800.00
  volume of cell :      186.45
      direct lattice vectors                 reciprocal lattice vectors
     3.282000000  0.000000000  0.000000000     0.304692261 -0.176026587  0.000000000
     1.641000000  2.840480000  0.000000000     0.000000000  0.352053174  0.000000000
     0.000000000  0.000000000 20.000000000     0.000000000  0.000000000  0.050000000

  length of vectors
     3.282000000  3.280427965 20.000000000     0.351884545  0.352053174  0.050000000

 FORCES acting on ions
    electron-ion (+dipol)            ewald-force                    non-local-force                 convergence-correction
   0.990E-08 -.511E-01 -.121E-08   0.214E-11 0.515E-01 0.000E+00   0.517E-17 -.423E-03 0.331E-23   0.630E-10 -.146E-04 -.181E-10
   0.227E-07 0.267E-01 0.498E+03   -.107E-11 -.258E-01 -.500E+03   0.173E-17 -.964E-03 0.260E+01   -.224E-10 0.132E-04 -.879E-03
   0.219E-07 0.267E-01 -.498E+03   -.107E-11 -.258E-01 0.500E+03   0.179E-17 -.964E-03 -.260E+01   -.216E-10 0.132E-04 0.879E-03
   0.545E-07 0.234E-02 -.118E-08   -.199E-15 0.408E-14 0.000E+00   0.869E-17 -.235E-02 0.000E+00   0.190E-10 0.119E-04 -.415E-10

 POSITION                                       TOTAL-FORCE (eV/Angst)
      3.28200      0.00057      0.00000        -0.000000     -0.000024      0.000000
      1.64100      0.94715     18.30918        -0.000000      0.000012      0.000064
      1.64100      0.94715      1.69082         0.000000      0.000012     -0.000064
    total drift:                                0.000000      0.000004     -0.000000

  FREE ENERGIE OF THE ION-ELECTRON SYSTEM (eV)
  free  energy   TOTEN  =       -21.63238292 eV

  energy  without entropy=      -21.63238292  energy(sigma->0) =      -21.63238292