 vasp.5.4.4.18Apr17-6-g9f103f2a35 (build May 31 2018 21:15:54) complex

 executed on          c7_intel_O1 date 2020.08.12  12:21:07

 INCAR:
 POTCAR:   PAW_PBE W 08Apr2002
 POTCAR:   PAW_PBE Se 06Sep2000
 POTCAR:   PAW_PBE W 08Apr2002
   VRHFIN =W : 6s5d

   TITEL  = PAW_PBE W 08Apr2002
   POMASS =  183.850; ZVAL   =    6.000    mass and valenz
   ENMAX  =  223.057; ENMIN  =  167.293 eV
   QCUT   =   -4.049; QGAM   =    8.098    optimization parameters

   Description
     l     E      TYP  RCUT    TYP  RCUT
     2   .000     23  2.500
     2   .000     23  2.500
     0   .000     23  2.500
     0   .000     23  2.500
     1   .200     23  2.750
     1  2.000     23  2.750
     3   .000      7   .000

 POTCAR:   PAW_PBE Se 06Sep2000
   VRHFIN =Se: s2p4

   TITEL  = PAW_PBE Se 06Sep2000
   POMASS =   78.960; ZVAL   =    6.000    mass and valenz
   ENMAX  =  211.534; ENMIN  =  158.651 eV
   QCUT   =   -3.943; QGAM   =    7.886    optimization parameters

   Description
     l     E      TYP  RCUT    TYP  RCUT
     0   .000     23  2.100
     0   .000     23  2.100
     1   .000     23  2.100
     1   .000     23  2.100
     2   .000     23  2.100
     3  -.100      7  2.100

 WARNING: PSMAXN for non-local potential too small
          PSMAXN should be >   14.4904333269122       NTYP=           1
 PAW_PBE W 08Apr2002                    :
 PAW_PBE Se 06Sep2000                   :

 POSCAR: WSe2 Mono
  positions in direct lattice
  velocities in cartesian coordinates
 exchange correlation table for  LEXCH =        8
   RHO(1)=    0.500       N(1)  =     2000
   RHO(2)=  100.500       N(2)  =     4000

 ion  position               nearest neighbor table
   1  1.000  0.000  0.000-   2 2.54   3 2.54   2 2.54   3 2.54   2 2.54   3 2.54
   2  0.333  0.333  0.915-   1 2.54   1 2.54   1 2.54
   3  0.333  0.333  0.085-   1 2.54   1 2.54   1 2.54

  LATTYP: Found a base centered orthorhombic cell.
 ALAT       =     3.2820000000
 B/A-ratio  =     1.7309445460
 C/A-ratio  =     6.0938452163

  Lattice vectors:

 A1 = (  -1.6410000000,  -2.8404800000,   0.0000000000)
 A2 = (  -1.6410000000,   2.8404800000,   0.0000000000)
 A3 = (   0.0000000000,   0.0000000000, -20.0000000000)

Analysis of symmetry for initial positions (statically):
 Subroutine PRICEL returns:
 Original cell was already a primitive cell.

 Routine SETGRP: Setting up the symmetry group for a
 base centered orthorhombic supercell.

 Subroutine GETGRP returns: Found  4 space group operations
 (whereof  4 operations were pure point group operations)
 out of a pool of  8 trial point group operations.

The static configuration has the point symmetry C_2v.

Analysis of symmetry for dynamics (positions and initial velocities):
 Subroutine PRICEL returns:
 Original cell was already a primitive cell.

 Routine SETGRP: Setting up the symmetry group for a
 base centered orthorhombic supercell.

 Subroutine GETGRP returns: Found  4 space group operations
 (whereof  4 operations were pure point group operations)
 out of a pool of  8 trial point group operations.

The dynamic configuration has the point symmetry C_2v.

 Subroutine INISYM returns: Found  4 space group operations
 (whereof  4 operations are pure point group operations),
 and found     1 'primitive' translations

 KPOINTS: k-points along high symmetry lines
  interpolating k-points between supplied coordinates
  k-points in reciprocal lattice
Space group operators:
 irot       det(A)        alpha          n_x          n_y          n_z        tau_x        tau_y        tau_z
    1     1.000000     0.000000     1.000000     0.000000     0.000000     0.000000     0.000000     0.000000
    2    -1.000000   180.000000     0.000000     0.000000     1.000000     0.000000     0.000000     0.000000
    3     1.000000   180.000000     0.000000     1.000000     0.000000     0.000000     0.000000     0.000000
    4    -1.000000   180.000000     1.000000    -0.000000     0.000000     0.000000     0.000000     0.000000

 SYSTEM =  W-1, se-2
 POSCAR =  WSe2 Mono

 Startparameter for this run:
   NWRITE =      2    write-flag & timer
   PREC   = accura    normal or accurate (medium, high low for compatibility)
   ISTART =      0    job   : 0-new  1-cont  2-samecut
   ICHARG =     11    charge: 1-file 2-atom 10-const
   ISPIN  =      1    spin polarized calculation?
   LNONCOLLINEAR =      F non collinear calculations
   LSORBIT =      F    spin-orbit coupling
   INIWAV =      1    electr: 0-lowe 1-rand  2-diag
   LASPH  =      F    aspherical Exc in radial PAW
   METAGGA=      F    non-selfconsistent MetaGGA calc.

 Electronic Relaxation 1
   ENCUT  =  800.0 eV  58.80 Ry    7.67 a.u.   7.57  7.57 46.12*2*pi/ulx,y,z
   ENINI  =  800.0     initial cutoff
   ENAUG  =  446.8 eV  augmentation charge cutoff
   NELM   =     60;   NELMIN=  5; NELMDL= -5     # of ELM steps
   EDIFF  = 0.1E-07   stopping-criterion for ELM
   LREAL  =      F    real-space projection
   NLSPLINE    = F    spline interpolate recip. space projectors
   LCOMPAT=      F    compatible to vasp.4.4
   GGA_COMPAT  = T    GGA compatible to vasp.4.4-vasp.4.6
   LMAXPAW     = -100 max onsite density
   LMAXMIX     =    2 max onsite mixed and CHGCAR
   VOSKOWN=      0    Vosko Wilk Nusair interpolation
   ROPT   =    0.00000   0.00000
 Ionic relaxation
   EDIFFG = -.1E-07   stopping-criterion for IOM
   NSW    =      0    number of steps for IOM
   NBLOCK =      1;   KBLOCK =      1    inner block; outer block
   IBRION =     -1    ionic relax: 0-MD 1-quasi-New 2-CG
   NFREE  =      0    steps in history (QN), initial steepest desc. (CG)
   ISIF   =      2    stress and relaxation
   IWAVPR =     10    prediction:  0-non 1-charg 2-wave 3-comb
   ISYM   =      2    0-nonsym 1-usesym 2-fastsym
   LCORR  =      T    Harris-Foulkes like correction to forces

   POTIM  = 0.5000    time-step for ionic-motion
   TEIN   =    0.0    initial temperature
   TEBEG  =    0.0;   TEEND  =   0.0 temperature during run
   SMASS  =  -3.00    Nose mass-parameter (am)
   estimated Nose-frequenzy (Omega)   =  0.10E-29 period in steps =****** mass=  -0.246E-27a.u.
   SCALEE = 1.0000    scale energy and forces
   NPACO  =    256;   APACO  = 16.0  distance and # of slots for P.C.
   PSTRESS=    0.0 pullay stress

  Mass of Ions in am
   POMASS = 183.85 78.96
  Ionic Valenz
   ZVAL   =   6.00  6.00
  Atomic Wigner-Seitz radii
  virtual crystal weights
   VCA    =   1.00  1.00
   NELECT =      18.0000    total number of electrons
   NUPDOWN=      -1.0000    fix difference up-down

 DOS related values:
   EMIN   =  10.00;   EMAX   =-10.00  energy-range for DOS
   EFERMI =   0.00
   ISMEAR =     0;   SIGMA  =   0.01  broadening in eV -4-tet -1-fermi 0-gaus

 Electronic relaxation 2 (details)
   IALGO  =     38    algorithm
   LDIAG  =      T    sub-space diagonalisation (order eigenvalues)
   LSUBROT=      F    optimize rotation matrix (better conditioning)
   TURBO    =      0    0=normal 1=particle mesh
   IRESTART =      0    0=no restart 2=restart with 2 vectors
   NREBOOT  =      0    no. of reboots
   NMIN     =      0    reboot dimension
   EREF     =   0.00    reference energy to select bands
   IMIX   =      4    mixing-type and parameters
     AMIX     =   0.40;   BMIX     =  1.00
     AMIX_MAG =   1.60;   BMIX_MAG =  1.00
     AMIN     =   0.01
     WC   =   100.;   INIMIX=   1;  MIXPRE=   1;  MAXMIX= -45

 Intra band minimization:
   WEIMIN = 0.0000     energy-eigenvalue tresh-hold
   EBREAK =  0.14E-10  absolut break condition
   DEPER  =   0.30     relativ break condition

   TIME   =   0.40     timestep for ELM

  volume/ion in A,a.u.               =      62.15       419.41
  Fermi-wavevector in a.u.,A,eV,Ry     =   0.751010  1.419203  7.673898  0.564016
  Thomas-Fermi vector in A             =   1.847892

 Write flags
   LWAVE        =      F    write WAVECAR
   LDOWNSAMPLE  =      F    k-point downsampling of WAVECAR
   LCHARG       =      F    write CHGCAR
   LVTOT        =      F    write LOCPOT, total local potential
   LVHAR        =      F    write LOCPOT, Hartree potential only
   LELF         =      F    write electronic localiz. function (ELF)
   LORBIT       =      0    0 simple, 1 ext, 2 COOP (PROOUT), +10 PAW based schemes

 Dipole corrections
   LMONO  =      F    monopole corrections only (constant potential shift)
   LDIPOL =      F    correct potential (dipole corrections)
   IDIPOL =      0    1-x, 2-y, 3-z, 4-all directions
   EPSILON=  1.0000000 bulk dielectric constant

 Exchange correlation treatment:
   GGA     =    --    GGA type
   VOSKOWN=      0    Vosko Wilk Nusair interpolation
   LHFCALC =     F    Hartree Fock is set to
   LHFONE  =     F    Hartree Fock one center treatment
   AEXX    =    0.0000 exact exchange contribution

 Linear response parameters
   LEPSILON=     F    determine dielectric tensor
   LRPA    =     F    only Hartree local field effects (RPA)
   LNABLA  =     F    use nabla operator in PAW spheres
   LVEL    =     F    velocity operator in full k-point grid
   LINTERFAST=   F  fast interpolation
   KINTER  =     0    interpolate to denser k-point grid
   CSHIFT  =0.1000    complex shift for real part using Kramers Kronig
   OMEGAMAX=  -1.0    maximum frequency
   DEG_THRESHOLD= 0.2000000E-02 threshold for treating states as degnerate
   RTIME   =   -0.100 relaxation time in fs
  (WPLASMAI=    0.000 imaginary part of plasma frequency in eV, 0.658/RTIME)
   DFIELD  = 0.0000000 0.0000000 0.0000000 field for delta impulse in time

 Orbital magnetization related:
   ORBITALMAG=     F  switch on orbital magnetization
   LCHIMAG   =     F  perturbation theory with respect to B field
   DQ        =  0.001000  dq finite difference perturbation B field
   LLRAUG    =     F  two centre corrections for induced B field

 Static calculation
 charge density and potential remain constant during run
 non-spin polarized calculation
 Variant of blocked Davidson
 Davidson routine will perform the subspace rotation
 perform sub-space diagonalisation
    after iterative eigenvector-optimisation
 no mixing
 using additional bands            9
 reciprocal scheme for non local part
 use partial core corrections
 calculate Harris-corrections to forces
   (improved forces if not selfconsistent)
 use gradient corrections
 WARNING: stress and forces are not correct
  (second derivative of E(xc) not defined)
 use of overlap-Matrix (Vanderbilt PP)
 Gauss-broadening in eV      SIGMA  =   0.01

  energy-cutoff  :      800.00
  volume of cell :      186.45
      direct lattice vectors                 reciprocal lattice vectors
     3.282000000  0.000000000  0.000000000     0.304692261 -0.176026587  0.000000000
     1.641000000  2.840480000  0.000000000     0.000000000  0.352053174  0.000000000
     0.000000000  0.000000000 20.000000000     0.000000000  0.000000000  0.050000000

  length of vectors
     3.282000000  3.280427965 20.000000000     0.351884545  0.352053174  0.050000000

 k-points in units of 2pi/SCALE and weight: k-points along high symmetry lines
   0.00000000  0.00000000  0.00000000       0.007
   0.00310910  0.00179619  0.00000000       0.007
   0.00621821  0.00359238  0.00000000       0.007
[...]
   0.50000000  0.50000000  0.00000000       0.007
   0.50000000  0.50000000  0.00000000       0.007
   0.50340137  0.49659863  0.00000000       0.007
   0.50680273  0.49319727  0.00000000       0.007
   0.51020410  0.48979590  0.00000000       0.007
   0.51360547  0.48639453  0.00000000       0.007
   0.51700684  0.48299316  0.00000000       0.007
   0.52040820  0.47959180  0.00000000       0.007
   0.52380957  0.47619043  0.00000000       0.007
   0.52721094  0.47278906  0.00000000       0.007
   0.53061231  0.46938769  0.00000000       0.007
[...]
   0.19047629  0.09523800  0.00000000       0.007
   0.17687084  0.08843529  0.00000000       0.007
   0.16326539  0.08163257  0.00000000       0.007
   0.14965994  0.07482986  0.00000000       0.007
   0.13605449  0.06802714  0.00000000       0.007
   0.12244904  0.06122443  0.00000000       0.007
   0.10884359  0.05442171  0.00000000       0.007
   0.09523814  0.04761900  0.00000000       0.007
   0.08163269  0.04081629  0.00000000       0.007
   0.06802724  0.03401357  0.00000000       0.007
   0.05442180  0.02721086  0.00000000       0.007
   0.04081635  0.02040814  0.00000000       0.007
   0.02721090  0.01360543  0.00000000       0.007
   0.01360545  0.00680271  0.00000000       0.007
  -0.00000000  0.00000000  0.00000000       0.007

 position of ions in fractional coordinates (direct lattice)
   0.99990000  0.00020000  0.00000000
   0.33327700  0.33344600  0.91545900
   0.33327700  0.33344600  0.08454100

 position of ions in cartesian coordinates  (Angst):
   3.28200000  0.00056810  0.00000000
   1.64100000  0.94714669 18.30918000
   1.64100000  0.94714669  1.69082000

 k-point  1 :   0.0000 0.0000 0.0000  plane waves:    9575
 k-point  2 :   0.0102 0.0102 0.0000  plane waves:    9586
 k-point  3 :   0.0204 0.0204 0.0000  plane waves:    9599
 k-point  4 :   0.0306 0.0306 0.0000  plane waves:    9603
 k-point  5 :   0.0408 0.0408 0.0000  plane waves:    9605
 k-point  6 :   0.0510 0.0510 0.0000  plane waves:    9611
 k-point  7 :   0.0612 0.0612 0.0000  plane waves:    9625
 k-point  8 :   0.0714 0.0714 0.0000  plane waves:    9629
 k-point  9 :   0.0816 0.0816 0.0000  plane waves:    9623
 k-point 10 :   0.0918 0.0918 0.0000  plane waves:    9617
 k-point 11 :   0.1020 0.1020 0.0000  plane waves:    9623
 k-point 12 :   0.1122 0.1122 0.0000  plane waves:    9631
 k-point 13 :   0.1224 0.1224 0.0000  plane waves:    9639
 k-point 14 :   0.1327 0.1327 0.0000  plane waves:    9635
 k-point 15 :   0.1429 0.1429 0.0000  plane waves:    9633
 k-point 16 :   0.1531 0.1531 0.0000  plane waves:    9631
 k-point 17 :   0.1633 0.1633 0.0000  plane waves:    9639
 k-point 18 :   0.1735 0.1735 0.0000  plane waves:    9639
 k-point 19 :   0.1837 0.1837 0.0000  plane waves:    9635
 k-point 20 :   0.1939 0.1939 0.0000  plane waves:    9627
 k-point 21 :   0.2041 0.2041 0.0000  plane waves:    9627
 k-point 22 :   0.2143 0.2143 0.0000  plane waves:    9625
 k-point 23 :   0.2245 0.2245 0.0000  plane waves:    9641
 k-point 24 :   0.2347 0.2347 0.0000  plane waves:    9641
 k-point 25 :   0.2449 0.2449 0.0000  plane waves:    9639
 k-point 26 :   0.2551 0.2551 0.0000  plane waves:    9631
 k-point 27 :   0.2653 0.2653 0.0000  plane waves:    9633
 k-point 28 :   0.2755 0.2755 0.0000  plane waves:    9621
 k-point 29 :   0.2857 0.2857 0.0000  plane waves:    9615
 k-point 30 :   0.2959 0.2959 0.0000  plane waves:    9613
 k-point 31 :   0.3061 0.3061 0.0000  plane waves:    9609
 k-point 32 :   0.3163 0.3163 0.0000  plane waves:    9601
 k-point 33 :   0.3265 0.3265 0.0000  plane waves:    9593
 k-point 34 :   0.3367 0.3367 0.0000  plane waves:    9597
 k-point 35 :   0.3469 0.3469 0.0000  plane waves:    9583
 k-point 36 :   0.3571 0.3571 0.0000  plane waves:    9593
 k-point 37 :   0.3673 0.3673 0.0000  plane waves:    9601
 k-point 38 :   0.3776 0.3776 0.0000  plane waves:    9589
 k-point 39 :   0.3878 0.3878 0.0000  plane waves:    9585
 k-point 40 :   0.3980 0.3980 0.0000  plane waves:    9573
 k-point 41 :   0.4082 0.4082 0.0000  plane waves:    9565
 k-point 42 :   0.4184 0.4184 0.0000  plane waves:    9546
 k-point 43 :   0.4286 0.4286 0.0000  plane waves:    9545
 k-point 44 :   0.4388 0.4388 0.0000  plane waves:    9536
 k-point 45 :   0.4490 0.4490 0.0000  plane waves:    9542
 k-point 46 :   0.4592 0.4592 0.0000  plane waves:    9538
 k-point 47 :   0.4694 0.4694 0.0000  plane waves:    9552
 k-point 48 :   0.4796 0.4796 0.0000  plane waves:    9542
 k-point 49 :   0.4898 0.4898 0.0000  plane waves:    9550
 k-point 50 :   0.5000 0.5000 0.0000  plane waves:    9554
 k-point 51 :   0.5000 0.5000 0.0000  plane waves:    9554
 k-point 52 :   0.5034 0.4966 0.0000  plane waves:    9552
 k-point 53 :   0.5068 0.4932 0.0000  plane waves:    9556
 k-point 54 :   0.5102 0.4898 0.0000  plane waves:    9558
 k-point 55 :   0.5136 0.4864 0.0000  plane waves:    9562
 k-point 56 :   0.5170 0.4830 0.0000  plane waves:    9558
 k-point 57 :   0.5204 0.4796 0.0000  plane waves:    9555
 k-point 58 :   0.5238 0.4762 0.0000  plane waves:    9555
 k-point 59 :   0.5272 0.4728 0.0000  plane waves:    9552
 k-point 60 :   0.5306 0.4694 0.0000  plane waves:    9544
[...]
 k-point 85 :   0.6156 0.3844 0.0000  plane waves:    9518
 k-point 86 :   0.6190 0.3810 0.0000  plane waves:    9518
 k-point 87 :   0.6224 0.3776 0.0000  plane waves:    9530
 k-point 88 :   0.6259 0.3741 0.0000  plane waves:    9536
 k-point 89 :   0.6293 0.3707 0.0000  plane waves:    9534
 k-point 90 :   0.6327 0.3673 0.0000  plane waves:    9528
 k-point 91 :   0.6361 0.3639 0.0000  plane waves:    9527
 k-point 92 :   0.6395 0.3605 0.0000  plane waves:    9532
 k-point 93 :   0.6429 0.3571 0.0000  plane waves:    9542
 k-point 94 :   0.6463 0.3537 0.0000  plane waves:    9546
 k-point 95 :   0.6497 0.3503 0.0000  plane waves:    9542
 k-point 96 :   0.6531 0.3469 0.0000  plane waves:    9540
 k-point 97 :   0.6565 0.3435 0.0000  plane waves:    9540
 k-point 98 :   0.6599 0.3401 0.0000  plane waves:    9534
 k-point 99 :   0.6633 0.3367 0.0000  plane waves:    9530
 k-point ** :   0.6667 0.3333 0.0000  plane waves:    9524
 k-point ** :   0.6667 0.3333 0.0000  plane waves:    9524
 k-point ** :   0.6531 0.3265 0.0000  plane waves:    9540
 k-point ** :   0.6395 0.3197 0.0000  plane waves:    9548
 k-point ** :   0.6259 0.3129 0.0000  plane waves:    9556
 k-point ** :   0.6122 0.3061 0.0000  plane waves:    9556
 k-point ** :   0.5986 0.2993 0.0000  plane waves:    9548
 k-point ** :   0.5850 0.2925 0.0000  plane waves:    9552
 k-point ** :   0.5714 0.2857 0.0000  plane waves:    9538
 k-point ** :   0.5578 0.2789 0.0000  plane waves:    9540
 k-point ** :   0.5442 0.2721 0.0000  plane waves:    9548
 k-point ** :   0.5306 0.2653 0.0000  plane waves:    9534
 k-point ** :   0.5170 0.2585 0.0000  plane waves:    9524
 k-point ** :   0.5034 0.2517 0.0000  plane waves:    9520
 k-point ** :   0.4898 0.2449 0.0000  plane waves:    9536
 k-point ** :   0.4762 0.2381 0.0000  plane waves:    9556
 k-point ** :   0.4626 0.2313 0.0000  plane waves:    9552
 k-point ** :   0.4490 0.2245 0.0000  plane waves:    9558
 k-point ** :   0.4354 0.2177 0.0000  plane waves:    9558
 k-point ** :   0.4218 0.2109 0.0000  plane waves:    9563
 k-point ** :   0.4082 0.2041 0.0000  plane waves:    9583
 k-point ** :   0.3946 0.1973 0.0000  plane waves:    9585
 k-point ** :   0.3810 0.1905 0.0000  plane waves:    9581
 k-point ** :   0.3673 0.1837 0.0000  plane waves:    9579
 k-point ** :   0.3537 0.1769 0.0000  plane waves:    9593
 k-point ** :   0.3401 0.1701 0.0000  plane waves:    9605
 k-point ** :   0.3265 0.1633 0.0000  plane waves:    9611
 k-point ** :   0.3129 0.1565 0.0000  plane waves:    9599
 k-point ** :   0.2993 0.1497 0.0000  plane waves:    9599
 k-point ** :   0.2857 0.1429 0.0000  plane waves:    9601
 k-point ** :   0.2721 0.1361 0.0000  plane waves:    9609
 k-point ** :   0.2585 0.1293 0.0000  plane waves:    9615
 k-point ** :   0.2449 0.1224 0.0000  plane waves:    9627
 k-point ** :   0.2313 0.1156 0.0000  plane waves:    9611
 k-point ** :   0.2177 0.1088 0.0000  plane waves:    9605
 k-point ** :   0.2041 0.1020 0.0000  plane waves:    9613
 k-point ** :   0.1905 0.0952 0.0000  plane waves:    9605
 k-point ** :   0.1769 0.0884 0.0000  plane waves:    9605
 k-point ** :   0.1633 0.0816 0.0000  plane waves:    9613
 k-point ** :   0.1497 0.0748 0.0000  plane waves:    9605
 k-point ** :   0.1361 0.0680 0.0000  plane waves:    9615
 k-point ** :   0.1224 0.0612 0.0000  plane waves:    9631
 k-point ** :   0.1088 0.0544 0.0000  plane waves:    9617
 k-point ** :   0.0952 0.0476 0.0000  plane waves:    9605
 k-point ** :   0.0816 0.0408 0.0000  plane waves:    9605
 k-point ** :   0.0680 0.0340 0.0000  plane waves:    9609
 k-point ** :   0.0544 0.0272 0.0000  plane waves:    9595
 k-point ** :   0.0408 0.0204 0.0000  plane waves:    9597
 k-point ** :   0.0272 0.0136 0.0000  plane waves:    9589
 k-point ** :   0.0136 0.0068 0.0000  plane waves:    9595
 k-point ** :  -0.0000 0.0000 0.0000  plane waves:    9575

 maximum and minimum number of plane-waves per node :      1621     1566

 maximum number of plane-waves:      9641
 maximum index in each direction:
   IXMAX=    7   IYMAX=    7   IZMAX=   46
   IXMIN=   -8   IYMIN=   -8   IZMIN=  -46

 parallel 3D FFT for wavefunctions:
    minimum data exchange during FFTs selected (reduces bandwidth)
 parallel 3D FFT for charge:
    minimum data exchange during FFTs selected (reduces bandwidth)

 initial charge density was supplied:
 number of electron      18.0000000 magnetization
 keeping initial charge density in first step

 Maximum index for augmentation-charges        15399 (set IRDMAX)

 First call to EWALD:  gamma=   0.310
 Maximum number of real-space cells 5x 5x 1
 Maximum number of reciprocal cells 2x 2x 8

--------------------------------------- Iteration      1(   1)  ---------------------------------------

 eigenvalue-minimisations  :  5400
 total energy-change (2. order) : 0.1191943E+03  (-0.7632791E+03)
 number of electron      18.0000000 magnetization
 augmentation part       18.0000000 magnetization

 Free energy of the ion-electron system (eV)
  alpha Z        PSCENC =        22.94334738
  Ewald energy   TEWEN  =      2158.26868162
  -Hartree energ DENC   =     -2831.72882871
  -exchange      EXHF   =         0.00000000
  -V(xc)+E(xc)   XCENC  =       -47.72554305
  PAW double counting   =       466.06334086     -380.94912685
  entropy T*S    EENTRO =        -0.00011764
  eigenvalues    EBANDS =        13.78448316
  atomic energy  EATOM  =       718.53809099
  Solvation  Ediel_sol  =         0.00000000
  free energy    TOTEN  =       119.19432776 eV

  energy without entropy =      119.19444539  energy(sigma->0) =      119.19438657

[...]

 eigenvalue-minimisations  :  8568
 total energy-change (2. order) :-0.1286391E+03  (-0.1187741E+03)
 number of electron      18.0000000 magnetization
 augmentation part       18.0000000 magnetization

[...]

--------------------------------------- Iteration      1(   8)  ---------------------------------------

 eigenvalue-minimisations  :  7452
 total energy-change (2. order) :-0.6234586E-09  (-0.6099542E-09)
 number of electron      18.0000000 magnetization
 augmentation part       18.0000000 magnetization

 Free energy of the ion-electron system (eV)
  alpha Z        PSCENC =        22.94334738
  Ewald energy   TEWEN  =      2158.26868162
  -Hartree energ DENC   =     -2831.72882871
  -exchange      EXHF   =         0.00000000
  -V(xc)+E(xc)   XCENC  =       -47.72554305
  PAW double counting   =       466.06334086     -380.94912685
  entropy T*S    EENTRO =        -0.00000000
  eigenvalues    EBANDS =      -126.65539630
  atomic energy  EATOM  =       718.53809099
  Solvation  Ediel_sol  =         0.00000000
  free energy    TOTEN  =       -21.24543406 eV

  energy without entropy =      -21.24543406  energy(sigma->0) =      -21.24543406

 average (electrostatic) potential at core
  the test charge radii are     1.1823  1.0808
  (the norm of the test charge is              1.0000)
       1 -47.5180       2 -60.1209       3 -60.1209

 E-fermi :  -1.6765     XC(G=0):  -3.9915     alpha+bet : -3.5498

 k-point     1 :       0.0000    0.0000    0.0000
  band No.  band energies     occupation
      1     -16.5475      2.00000
      2     -15.3661      2.00000
      3      -8.0051      2.00000
      4      -4.0500      2.00000
      5      -4.0474      2.00000
      6      -4.0402      2.00000
      7      -2.9127      2.00000
      8      -2.9078      2.00000
      9      -2.2405      2.00000
     10       1.2311      0.00000
     11       1.2347      0.00000
     12       1.3699      0.00000
     13       1.3764      0.00000
     14       2.4993      0.00000
     15       2.9597      0.00000
     16       3.4450      0.00000
     17       4.1621      0.00000
     18       4.9138      0.00000

[...]

 k-point   150 :      -0.0000    0.0000    0.0000
  band No.  band energies     occupation
      1     -16.5475      2.00000
      2     -15.3661      2.00000
      3      -8.0051      2.00000
      4      -4.0500      2.00000
      5      -4.0474      2.00000
      6      -4.0402      2.00000
      7      -2.9127      2.00000
      8      -2.9078      2.00000
      9      -2.2405      2.00000
     10       1.2311      0.00000
     11       1.2347      0.00000
     12       1.3699      0.00000
     13       1.3764      0.00000
     14       2.4993      0.00000
     15       2.9597      0.00000
     16       3.4450      0.00000
     17       4.1621      0.00000
     18       4.9138      0.00000

 soft charge-density along one line, spin component           1
         0         1         2         3         4         5         6         7         8         9
 total charge-density along one line

------------------------ aborting loop because EDIFF is reached ----------------------------------------

  FORCE on cell =-STRESS in cart. coord.  units (eV):
  Direction    XX          YY          ZZ          XY          YZ          ZX
  Alpha Z    22.94335    22.94335    22.94335
  Ewald    2703.62692  2703.71518 -3249.07350    -0.00000     0.00000     0.00000
  Hartree  2809.81716  2810.24075 -2783.84999     0.00000    -0.00000    -0.00000
  E(xc)     -70.51020   -72.07564   -72.18849     0.00000    -0.00000    -0.00000
  Local   -5745.63448 -5754.73149  5792.68983     0.00000    -0.00000     0.00000
  n-local    66.09631    66.19126    72.59338     0.45041     0.00000    -0.00000
  augment    -2.39344    -2.24937    -3.27262    -0.00000    -0.00000    -0.00000
  Kinetic   217.16669   226.24666   220.97143    -5.64915     0.00000    -0.00000
  Fock        0.00000     0.00000     0.00000     0.00000     0.00000     0.00000
  Total       1.11230     0.28070     0.81337     0.00000     0.00000     0.00000
  in kB       9.55815     2.41207     6.98942     0.00000     0.00000     0.00000

 VOLUME and BASIS-vectors are now :
  energy-cutoff  :      800.00
  volume of cell :      186.45
      direct lattice vectors                 reciprocal lattice vectors
     3.282000000  0.000000000  0.000000000     0.304692261 -0.176026587  0.000000000
     1.641000000  2.840480000  0.000000000     0.000000000  0.352053174  0.000000000
     0.000000000  0.000000000 20.000000000     0.000000000  0.000000000  0.050000000

  length of vectors
     3.282000000  3.280427965 20.000000000     0.351884545  0.352053174  0.050000000

 FORCES acting on ions
    electron-ion (+dipol)            ewald-force                    non-local-force                 convergence-correction
   0.468E-08 -.312E+00 -.429E-08   0.214E-11 0.515E-01 0.000E+00   -.951E-17 0.300E+00 0.827E-24   0.199E-09 0.492E-01 -.172E-10
   0.180E-07 0.553E+00 0.501E+03   -.107E-11 -.258E-01 -.500E+03   0.298E-17 0.176E-01 0.224E+01   -.856E-10 -.546E+00 -.241E+01
   0.161E-07 0.553E+00 -.501E+03   -.107E-11 -.258E-01 0.500E+03   0.659E-18 0.176E-01 -.224E+01   0.153E-10 -.546E+00 0.241E+01
   0.388E-07 0.795E+00 -.263E-08   -.199E-15 0.408E-14 0.000E+00   -.587E-17 0.335E+00 0.000E+00   0.128E-09 -.104E+01 -.325E-10

 POSITION                                       TOTAL-FORCE (eV/Angst)
      3.28200      0.00057      0.00000         0.000000      0.059958      0.000000
      1.64100      0.94715     18.30918        -0.000000     -0.029979     -0.031785
      1.64100      0.94715      1.69082        -0.000000     -0.029979      0.031785
    total drift:                                0.000000      0.087161     -0.000000

  FREE ENERGIE OF THE ION-ELECTRON SYSTEM (eV)
  free  energy   TOTEN  =       -21.24543406 eV

  energy  without entropy=      -21.24543406  energy(sigma->0) =      -21.24543406